ITEM: TIMESTEP
0
ITEM: NUMBER OF ATOMS
128
ITEM: BOX BOUNDS pp pp pp
-6.2010977310080699e+00 6.2010977310080699e+00
-2.1200334123104558e+00 2.1200334123104558e+00
-2.1200334123104558e+00 2.1200334123104558e+00
ITEM: ATOMS id mol type x y z ix iy iz
1 1 1 -5.90019 0.557862 -0.985127 0 0 0
2 1 1 -4.95299 0.371107 -1.059 0 0 0
3 1 1 -4.40913 -0.147141 -1.67559 0 0 0
4 1 1 -4.904 -0.913542 -1.34735 0 0 0
5 1 1 -4.3437 -0.545517 -0.626655 0 0 0
6 1 1 -3.54023 -0.906783 -0.166993 0 0 0
7 1 1 -2.98031 -0.444991 0.413492 0 0 0
8 1 1 -2.95522 -1.01889 1.17391 0 0 0
9 1 2 -2.62449 -1.65348 0.554788 0 0 0
10 1 2 -2.37841 -1.13393 -0.278409 0 0 0
11 1 2 -1.50434 -0.912805 0.0740101 0 0 0
12 1 2 -0.589696 -0.976102 0.0174746 0 0 0
13 1 2 0.0329384 -0.495235 -0.579726 0 0 0
14 1 2 0.843928 -0.970962 -0.533763 0 0 0
15 1 2 1.75876 -1.09545 -0.838617 0 0 0
16 1 2 1.42083 -0.804818 -1.66228 0 0 0
17 2 1 -2.46312 -1.81943 -1.96778 0 0 0
18 2 1 -2.58912 -0.825863 2.10901 0 0 -1
19 2 1 -1.74169 -0.561742 -1.90136 0 0 0
20 2 1 -0.822398 -0.604155 2.04493 0 0 -1
21 2 1 -0.349237 -0.955615 1.33597 0 0 -1
22 2 1 0.504006 -0.777786 0.924461 0 0 -1
23 2 1 1.29806 -0.454264 0.383246 0 0 -1
24 2 1 1.52521 0.467828 0.5294 0 0 -1
25 2 2 2.12158 1.21819 0.528979 0 0 -1
26 2 2 2.17358 1.83777 1.29696 0 0 -1
27 2 2 3.055 1.66822 1.48432 0 0 -1
28 2 2 3.4526 -2.05384 -2.10183 0 1 0
29 2 2 3.64515 -1.08534 -2.03104 0 1 0
30 2 2 4.18306 -0.337091 1.99431 0 1 -1
31 2 2 4.51875 -1.14586 1.64451 0 1 -1
32 2 2 4.44881 -0.744958 0.751151 0 1 -1
33 3 1 -3.11977 -1.91202 -0.973855 0 1 0
34 3 1 -3.13911 1.39035 -0.996256 0 0 0
35 3 1 -2.71654 1.41494 -1.91272 0 0 0
36 3 1 -1.79057 1.39872 -1.87154 0 0 0
37 3 1 -1.8006 1.75552 -0.945188 0 0 0
38 3 1 -1.56112 -2.05901 -0.0778842 0 1 0
39 3 1 -0.729755 1.72551 -0.302001 0 0 0
40 3 1 0.229318 1.52353 -0.426514 0 0 0
41 3 2 0.903179 -2.01595 -0.375803 0 1 0
42 3 2 0.997578 1.97098 -1.23144 0 0 0
43 3 2 1.82818 1.50951 -0.783431 0 0 0
44 3 2 2.68551 1.65709 -0.447024 0 0 0
45 3 2 3.60042 1.33244 -0.707272 0 0 0
46 3 2 3.97236 1.42301 -1.56947 0 0 0
47 3 2 4.86192 1.47865 -1.12242 0 0 0
48 3 2 5.76253 1.65038 -1.26213 0 0 0
49 4 1 -4.68125 -2.00734 0.565693 0 0 0
50 4 1 -5.53656 2.0862 0.275769 0 -1 0
51 4 1 -5.56182 -2.06505 -0.652891 0 0 0
52 4 1 -4.69272 1.85369 -0.547071 0 -1 0
53 4 1 -4.27253 0.985097 -0.272144 0 -1 0
54 4 1 -3.75672 0.502019 -0.971371 0 -1 0
55 4 1 -3.18015 0.750845 -0.176047 0 -1 0
56 4 1 -2.22005 0.80062 -0.173235 0 -1 0
57 4 2 -1.5469 1.03704 0.45165 0 -1 0
58 4 2 -1.84685 1.16707 1.32037 0 -1 0
59 4 2 -1.51214 2.01447 1.08986 0 -1 0
60 4 2 -0.563642 -2.10672 0.85708 0 0 0
61 4 2 -0.60022 2.11575 1.77745 0 -1 0
62 4 2 0.305573 2.11009 1.98577 0 -1 0
63 4 2 -0.115512 -1.39011 -1.77175 0 0 1
64 4 2 -0.268039 -2.0897 -1.12388 0 0 1
65 5 1 0.127086 -0.172539 -1.71767 0 0 0
66 5 1 0.814075 -0.00247099 -1.06364 0 0 0
67 5 1 0.594564 0.911651 -1.19266 0 0 0
68 5 1 1.39442 0.959248 -1.81476 0 0 0
69 5 1 1.90515 0.887906 1.56038 0 0 -1
70 5 1 2.36859 0.115833 1.18858 0 0 -1
71 5 1 2.02853 -0.0409995 2.09326 0 0 -1
72 5 1 2.75993 0.3239 -1.68431 0 0 0
73 5 2 2.94027 -0.580023 -1.35821 0 0 0
74 5 2 2.69998 -1.48721 -1.03624 0 0 0
75 5 2 3.59308 -1.48714 -0.789796 0 0 0
76 5 2 4.50119 -1.25904 -0.959074 0 0 0
77 5 2 5.15711 -1.41894 -0.211053 0 0 0
78 5 2 5.85257 -1.57521 -0.811318 0 0 0
79 5 2 6.15844 -1.41863 0.12711 0 0 0
80 5 2 -5.9733 -0.612707 -0.298632 1 0 0
81 6 1 -4.01048 -1.65572 1.49497 0 1 0
82 6 1 -4.00855 1.60187 1.63567 0 0 0
83 6 1 -3.13903 1.35433 1.29944 0 0 0
84 6 1 -2.63719 0.529473 1.46107 0 0 0
85 6 1 -1.9935 0.0198894 0.962111 0 0 0
86 6 1 -1.33348 0.166514 1.69056 0 0 0
87 6 1 -0.671709 0.778044 1.32985 0 0 0
88 6 1 0.176877 0.227814 1.30188 0 0 0
89 6 2 -0.431977 -0.0245446 0.559017 0 0 0
90 6 2 -0.502538 0.857656 0.216704 0 0 0
91 6 2 0.331031 1.07133 0.643063 0 0 0
92 6 2 0.464785 1.98688 0.672986 0 0 0
93 6 2 1.4428 2.09679 0.458844 0 0 0
94 6 2 1.80602 -1.36132 0.796544 0 1 0
95 6 2 1.71533 -1.54434 1.71389 0 1 0
96 6 2 1.58438 1.89757 -2.07873 0 0 1
97 7 1 -5.62058 1.38312 -1.80129 0 -1 1
98 7 1 -5.23031 1.95315 1.74136 0 -1 0
99 7 1 -4.64162 -1.94884 -1.7843 0 0 1
100 7 1 -4.93609 -1.17248 1.89243 0 0 0
101 7 1 -5.87745 -1.07056 1.75199 0 0 0
102 7 1 5.8704 -0.347225 -2.10007 -1 0 1
103 7 1 5.88176 0.576487 1.63114 -1 0 0
104 7 1 -5.61298 0.398367 1.47686 0 0 0
105 7 2 -4.99337 0.148837 0.775718 0 0 0
106 7 2 -4.16583 0.229211 1.17018 0 0 0
107 7 2 -3.57155 -0.281028 1.70832 0 0 0
108 7 2 -3.33643 -0.336671 -1.62121 0 0 1
109 7 2 -2.73506 -0.335967 -0.847002 0 0 1
110 7 2 -1.78703 -0.280723 -0.814463 0 0 1
111 7 2 -1.18359 0.422928 -0.994339 0 0 1
112 7 2 -0.522136 1.09855 -1.35555 0 0 1
113 8 1 3.91496 0.827373 1.01374 0 -1 0
114 8 1 4.24941 1.46362 1.66022 0 -1 0
115 8 1 5.06914 1.99798 1.47202 0 -1 0
116 8 1 4.35522 -1.95657 0.78132 0 0 0
117 8 1 3.46072 -1.63883 1.11454 0 0 0
118 8 1 2.72406 -1.08897 1.01322 0 0 0
119 8 1 3.21956 -0.441214 0.538553 0 0 0
120 8 1 3.93755 -0.413378 -0.111996 0 0 0
121 8 2 4.09082 -0.0281683 -0.99988 0 0 0
122 8 2 4.90238 0.0233418 -1.52611 0 0 0
123 8 2 5.31527 -0.255441 -0.760472 0 0 0
124 8 2 5.02095 0.580629 -0.40518 0 0 0
125 8 2 4.8391 0.113022 0.394524 0 0 0
126 8 2 5.62182 -0.365735 0.69156 0 0 0
127 8 2 -5.97923 0.0551414 0.531677 1 0 0
128 8 2 6.13768 1.04122 0.436918 0 0 0
ITEM: TIMESTEP
200
ITEM: NUMBER OF ATOMS
128
ITEM: BOX BOUNDS pp pp pp
-6.2010977310080699e+00 6.2010977310080699e+00
-2.1200334123104558e+00 2.1200334123104558e+00
-2.1200334123104558e+00 2.1200334123104558e+00
ITEM: ATOMS id mol type x y z ix iy iz
1 1 1 6.11567 0.345435 -1.03662 -1 0 0
2 1 1 -5.454 0.327547 -1.57118 0 0 0
3 1 1 -4.81908 -0.451914 -1.75898 0 0 0
4 1 1 -4.05638 -0.806256 -1.28016 0 0 0
5 1 1 -4.31805 -0.429482 -0.425682 0 0 0
6 1 1 -4.03074 -0.761362 0.426585 0 0 0
7 1 1 -3.21006 -0.623125 0.116839 0 0 0
8 1 1 -3.026 -1.46092 0.627383 0 0 0
9 1 2 -2.12161 -1.55928 0.332725 0 0 0
10 1 2 -2.21934 -1.58182 -0.636102 0 0 0
11 1 2 -1.37916 -1.25237 -0.876086 0 0 0
12 1 2 -1.02167 -1.41003 0.0191433 0 0 0
13 1 2 -0.292289 -0.906753 -0.378509 0 0 0
14 1 2 0.579146 -0.556791 -0.254907 0 0 0
15 1 2 1.50158 -1.02692 -0.090453 0 0 0
16 1 2 1.58586 -1.07179 -1.06075 0 0 0
17 2 1 -2.12437 -1.53075 1.69306 0 0 -1
18 2 1 -2.13492 -1.00217 -1.76199 0 0 0
19 2 1 -1.31033 -0.6192 -2.0398 0 0 0
20 2 1 -0.343707 -0.660156 1.97762 0 0 -1
21 2 1 0.393616 -0.96475 1.37478 0 0 -1
22 2 1 0.586428 -0.190971 0.820712 0 0 -1
23 2 1 1.12034 0.368379 0.346196 0 0 -1
24 2 1 1.96909 0.358379 -0.128708 0 0 -1
25 2 2 2.25353 1.06437 0.521871 0 0 -1
26 2 2 2.50413 1.98511 0.815405 0 0 -1
27 2 2 3.1022 1.65469 1.49449 0 0 -1
28 2 2 3.38736 -1.92594 2.05627 0 1 -1
29 2 2 3.43682 -1.22955 1.435 0 1 -1
30 2 2 3.79498 -0.311181 1.43716 0 1 -1
31 2 2 4.49995 -1.05824 1.44175 0 1 -1
32 2 2 4.1798 -1.004 0.540921 0 1 -1
33 3 1 -3.39996 1.76724 -0.150955 0 0 0
34 3 1 -3.09447 2.09867 -0.973335 0 0 0
35 3 1 -2.68562 1.37368 -1.49576 0 0 0
36 3 1 -1.90674 1.12189 -1.98137 0 0 0
37 3 1 -1.74673 1.43164 -1.11034 0 0 0
38 3 1 -1.77518 1.7935 -0.254238 0 0 0
39 3 1 -0.896277 1.90281 -0.61197 0 0 0
40 3 1 0.0221021 1.79941 -0.768911 0 0 0
41 3 2 0.45297 -1.66561 -0.485407 0 1 0
42 3 2 1.28671 2.0485 -0.914905 0 0 0
43 3 2 2.16883 -1.97675 -0.692134 0 1 0
44 3 2 2.41334 1.31852 -0.508307 0 0 0
45 3 2 3.00656 1.24259 -1.30111 0 0 0
46 3 2 3.83626 1.5585 -1.39887 0 0 0
47 3 2 4.72684 1.84479 -1.12327 0 0 0
48 3 2 5.21941 1.19264 -1.76631 0 0 0
49 4 1 -4.44216 1.55259 1.00591 0 -1 0
50 4 1 -5.39697 1.59523 0.826637 0 -1 0
51 4 1 -5.12235 1.89046 -0.0857121 0 -1 0
52 4 1 -4.49389 1.6229 -0.790627 0 -1 0
53 4 1 -4.71311 0.723911 -0.675326 0 -1 0
54 4 1 -3.69092 0.941711 -0.651929 0 -1 0
55 4 1 -3.12206 0.833873 0.111245 0 -1 0
56 4 1 -2.17302 0.734255 0.113818 0 -1 0
57 4 2 -1.33699 0.97654 0.53364 0 -1 0
58 4 2 -1.81898 1.77215 0.822399 0 -1 0
59 4 2 -1.10993 2.12732 1.40018 0 -1 0
60 4 2 -0.255526 -2.09141 1.05798 0 0 0
61 4 2 0.373752 1.61505 1.58803 0 -1 0
62 4 2 1.05694 1.85537 -1.98179 0 -1 1
63 4 2 0.104718 -2.16855 -1.78439 0 0 1
64 4 2 -0.632391 -1.56592 -2.03301 0 0 1
65 5 1 0.92946 -0.401085 -1.55349 0 0 0
66 5 1 0.248754 0.0624309 -1.0727 0 0 0
67 5 1 0.621233 0.736039 -1.60971 0 0 0
68 5 1 1.54683 0.346894 -1.61806 0 0 0
69 5 1 1.72881 0.918319 1.80496 0 0 -1
70 5 1 2.50802 0.57508 -2.0124 0 0 0
71 5 1 2.38618 -0.388142 -2.0444 0 0 0
72 5 1 2.76702 -0.137801 -1.21864 0 0 0
73 5 2 2.53196 -0.741672 -0.497632 0 0 0
74 5 2 2.80688 -1.10397 -1.34249 0 0 0
75 5 2 3.70375 -0.727432 -1.21987 0 0 0
76 5 2 4.5133 -0.88423 -0.756157 0 0 0
77 5 2 5.38054 -0.94692 -0.341807 0 0 0
78 5 2 -6.15274 -1.12 -0.860424 1 0 0
79 5 2 -5.93682 -1.26822 0.0542213 1 0 0
80 5 2 -5.36604 -0.486206 -0.176646 1 0 0
81 6 1 -4.3021 -1.55953 1.51036 0 1 0
82 6 1 -3.75737 1.91022 1.84786 0 0 0
83 6 1 -3.34177 1.2509 1.30042 0 0 0
84 6 1 -2.77944 0.459641 1.23098 0 0 0
85 6 1 -2.18979 -0.110512 1.78744 0 0 0
86 6 1 -1.49248 0.493067 1.42229 0 0 0
87 6 1 -0.764905 1.01679 1.56885 0 0 0
88 6 1 0.0237953 0.519918 1.80233 0 0 0
89 6 2 -0.400704 0.0954104 1.06109 0 0 0
90 6 2 -0.250625 0.536791 0.148128 0 0 0
91 6 2 0.39201 0.971514 0.679692 0 0 0
92 6 2 1.28107 1.29785 0.788504 0 0 0
93 6 2 1.48311 1.94046 0.0764104 0 0 0
94 6 2 1.60368 -1.74412 0.894471 0 1 0
95 6 2 2.39834 -1.20425 1.21565 0 1 0
96 6 2 2.25966 -1.9506 1.78819 0 1 0
97 7 1 -5.32267 1.5026 -1.90351 0 -1 1
98 7 1 -5.71826 -1.98604 1.82249 0 0 0
99 7 1 -5.56399 -1.82125 -1.4051 0 0 1
100 7 1 -5.76429 -1.09605 -1.91106 0 0 1
101 7 1 5.77422 -1.55428 -1.86431 -1 0 1
102 7 1 5.64776 -0.577675 -2.03005 -1 0 1
103 7 1 6.04674 0.291888 -2.17138 -1 0 1
104 7 1 -5.5851 0.27628 1.59603 0 0 0
105 7 2 -4.79495 -0.162386 1.25605 0 0 0
106 7 2 -4.15214 0.309421 1.73861 0 0 0
107 7 2 -3.71859 -0.582645 1.64032 0 0 0
108 7 2 -3.29434 -0.294969 -1.75851 0 0 1
109 7 2 -2.92088 -0.0766506 -0.893819 0 0 1
110 7 2 -2.18632 0.286152 -1.444 0 0 1
111 7 2 -1.2123 0.394628 -1.1966 0 0 1
112 7 2 -0.715756 1.06899 -1.67098 0 0 1
113 8 1 3.34757 0.792088 0.850615 0 -1 0
114 8 1 4.17176 0.830662 1.24669 0 -1 0
115 8 1 4.97423 1.42121 1.32035 0 -1 0
116 8 1 4.41565 1.97132 0.809963 0 -1 0
117 8 1 3.5682 -2.04805 0.405467 0 0 0
118 8 1 3.20019 -1.17327 0.206098 0 0 0
119 8 1 2.63213 -0.444701 0.416422 0 0 0
120 8 1 3.3726 -0.00301885 -0.0369077 0 0 0
121 8 2 4.16351 0.458964 -0.382305 0 0 0
122 8 2 4.24915 0.309694 -1.31204 0 0 0
123 8 2 5.07006 0.146341 -0.829308 0 0 0
124 8 2 5.19539 0.460951 0.0985477 0 0 0
125 8 2 5.46678 0.193578 0.977864 0 0 0
126 8 2 6.11331 -0.0520799 0.349159 0 0 0
127 8 2 6.10587 0.970103 0.425639 0 0 0
128 8 2 5.45314 1.57611 0.174117 0 0 0
ITEM: TIMESTEP
400
ITEM: NUMBER OF ATOMS
128
ITEM: BOX BOUNDS pp pp pp
-6.2010977310080699e+00 6.2010977310080699e+00
-2.1200334123104558e+00 2.1200334123104558e+00
-2.1200334123104558e+00 2.1200334123104558e+00
ITEM: ATOMS id mol type x y z ix iy iz
1 1 1 -5.61197 0.478085 -1.05059 0 0 0
2 1 1 -5.19909 -0.140176 -1.69801 0 0 0
3 1 1 -5.04813 -0.686396 -0.957884 0 0 0
4 1 1 -4.13128 -0.794597 -1.17453 0 0 0
5 1 1 -4.22502 -1.05574 -0.256981 0 0 0
6 1 1 -4.01499 -0.686857 0.563 0 0 0
7 1 1 -3.23537 -0.487751 0.1407 0 0 0
8 1 1 -3.1097 -1.39781 0.360924 0 0 0
9 1 2 -2.18012 -1.27042 0.118465 0 0 0
10 1 2 -2.00483 -0.763977 -0.724147 0 0 0
11 1 2 -1.07116 -0.850122 -0.642299 0 0 0
12 1 2 -1.084 -1.67229 -0.205404 0 0 0
13 1 2 -0.198716 -1.26499 -0.147044 0 0 0
14 1 2 -0.183126 -0.337806 -0.0580583 0 0 0
15 1 2 0.691136 -0.802956 0.0889799 0 0 0
16 1 2 1.26518 -0.66676 -0.782536 0 0 0
17 2 1 -2.32486 -1.62295 1.61495 0 0 -1
18 2 1 -1.75332 -0.973927 2.07305 0 0 -1
19 2 1 -0.760299 -0.783623 1.92065 0 0 -1
20 2 1 0.198047 -0.889461 1.73646 0 0 -1
21 2 1 0.812183 -0.116905 1.5909 0 0 -1
22 2 1 1.23698 -0.464715 0.842115 0 0 -1
23 2 1 0.841963 0.14622 0.226104 0 0 -1
24 2 1 1.54325 0.356625 -0.393978 0 0 -1
25 2 2 2.21689 0.985146 -0.109433 0 0 -1
26 2 2 2.90651 1.31833 0.433744 0 0 -1
27 2 2 3.2935 1.94963 1.07574 0 0 -1
28 2 2 3.775 -1.75816 1.71315 0 1 -1
29 2 2 4.04675 -1.36378 0.900576 0 1 -1
30 2 2 3.81081 -0.422292 1.01384 0 1 -1
31 2 2 4.8262 -0.617478 1.24518 0 1 -1
32 2 2 4.7607 -0.743922 0.305528 0 1 -1
33 3 1 -3.48849 1.82359 -0.459931 0 0 0
34 3 1 -3.20637 -1.86838 -1.13627 0 1 0
35 3 1 -3.05623 1.43505 -1.32785 0 0 0
36 3 1 -2.41677 1.32715 -2.02789 0 0 0
37 3 1 -1.5903 1.79339 -1.88057 0 0 0
38 3 1 -1.10886 1.60578 -1.09454 0 0 0
39 3 1 -0.396087 1.46948 -0.422389 0 0 0
40 3 1 0.253162 1.98975 -0.0127744 0 0 0
41 3 2 0.795448 -2.13613 -0.79287 0 1 0
42 3 2 1.37916 1.65888 -0.274207 0 0 0
43 3 2 2.06079 -1.92199 -0.352473 0 1 0
44 3 2 2.42491 1.63448 -1.03952 0 0 0
45 3 2 3.21953 1.7281 -1.52492 0 0 0
46 3 2 3.99755 1.75275 -1.03321 0 0 0
47 3 2 4.85594 1.93409 -1.42519 0 0 0
48 3 2 4.67071 1.0651 -1.68027 0 0 0
49 4 1 -4.20493 0.825474 1.34389 0 -1 0
50 4 1 -4.90907 1.32448 0.832359 0 -1 0
51 4 1 -4.87801 1.35679 -0.102447 0 -1 0
52 4 1 -5.21067 1.44083 -1.03239 0 -1 0
53 4 1 -4.57811 0.776759 -0.889358 0 -1 0
54 4 1 -3.8728 0.521243 -0.306681 0 -1 0
55 4 1 -2.9473 0.506644 -0.151333 0 -1 0
56 4 1 -2.25084 0.465459 0.484088 0 -1 0
57 4 2 -1.9561 1.35189 0.216743 0 -1 0
58 4 2 -1.94096 1.82813 1.08616 0 -1 0
59 4 2 -1.12796 -1.9439 0.989079 0 0 0
60 4 2 -0.191093 -1.89822 1.12111 0 0 0
61 4 2 0.67446 1.9512 1.47921 0 -1 0
62 4 2 0.937846 1.56824 -1.91033 0 -1 1
63 4 2 0.0371259 1.61282 -1.52532 0 -1 1
64 4 2 -0.525542 -2.00892 -1.97966 0 0 1
65 5 1 0.261435 -1.04378 -1.12578 0 0 0
66 5 1 -0.243707 -0.315231 -1.55567 0 0 0
67 5 1 0.502153 0.261135 -1.37544 0 0 0
68 5 1 1.39016 0.633717 -1.38884 0 0 0
69 5 1 2.24874 0.642327 -1.77347 0 0 0
70 5 1 2.9114 0.510559 1.76802 0 0 -1
71 5 1 3.08149 -0.294574 -1.93996 0 0 0
72 5 1 3.20988 0.421467 -1.29223 0 0 0
73 5 2 2.66107 -0.0802486 -0.693743 0 0 0
74 5 2 2.83165 -0.958021 -1.07397 0 0 0
75 5 2 3.74624 -0.866117 -1.20371 0 0 0
76 5 2 4.57075 -0.642614 -0.797452 0 0 0
77 5 2 5.51536 -0.701566 -0.677013 0 0 0
78 5 2 -6.13636 -0.928705 -0.133811 1 0 0
79 5 2 -6.10471 -1.67587 0.472769 1 0 0
80 5 2 -5.57079 -1.20194 1.15422 1 0 0
81 6 1 -4.07166 -1.69023 1.45668 0 1 0
82 6 1 -3.3536 2.01997 1.82604 0 0 0
83 6 1 -3.39554 1.34457 1.1214 0 0 0
84 6 1 -2.79742 0.636092 1.2953 0 0 0
85 6 1 -2.16718 -0.0849148 1.25693 0 0 0
86 6 1 -1.68599 0.670628 1.71912 0 0 0
87 6 1 -1.02121 1.30371 1.6155 0 0 0
88 6 1 -0.280098 0.701755 1.63004 0 0 0
89 6 2 -0.504638 -0.051931 1.0045 0 0 0
90 6 2 -0.369648 0.805094 0.518352 0 0 0
91 6 2 0.481508 1.15772 0.783102 0 0 0
92 6 2 1.34868 0.857941 1.08626 0 0 0
93 6 2 1.29166 1.78884 0.694728 0 0 0
94 6 2 1.42695 -1.64373 1.12562 0 1 0
95 6 2 2.02157 2.02202 1.71068 0 0 0
96 6 2 2.42272 -1.36683 2.01896 0 1 0
97 7 1 -4.97404 2.10709 2.03265 0 -1 0
98 7 1 -5.82513 -1.77503 1.91479 0 0 0
99 7 1 -6.11214 -2.02596 -1.43048 0 0 1
100 7 1 6.15534 -1.09624 -1.44402 -1 0 1
101 7 1 5.25912 -1.02179 -1.87555 -1 0 1
102 7 1 5.17919 -0.0846981 -1.98338 -1 0 1
103 7 1 5.89097 0.499281 1.95089 -1 0 0
104 7 1 -5.81329 0.493087 1.25286 0 0 0
105 7 2 -5.32459 -0.28173 1.5221 0 0 0
106 7 2 -4.45192 -0.718919 1.77601 0 0 0
107 7 2 -3.63045 -0.228711 1.88625 0 0 0
108 7 2 -2.74702 0.0458589 -2.01075 0 0 1
109 7 2 -3.26533 0.180164 -1.22241 0 0 1
110 7 2 -2.3116 0.151545 -0.928178 0 0 1
111 7 2 -1.38707 0.223641 -1.30594 0 0 1
112 7 2 -0.724063 0.840979 -1.61231 0 0 1
113 8 1 3.6137 0.564297 0.976701 0 -1 0
114 8 1 4.49672 0.481053 1.34442 0 -1 0
115 8 1 4.54981 1.31198 0.904493 0 -1 0
116 8 1 4.05029 1.80031 0.245706 0 -1 0
117 8 1 3.92392 -1.60633 -0.34153 0 0 0
118 8 1 3.00376 -1.51243 -0.0258587 0 0 0
119 8 1 2.21648 -0.974657 0.119369 0 0 0
120 8 1 2.87404 -0.304782 0.357131 0 0 0
121 8 2 3.38038 0.277698 -0.204849 0 0 0
122 8 2 4.13617 0.569136 -0.757664 0 0 0
123 8 2 5.03303 0.520716 -0.477936 0 0 0
124 8 2 5.51982 0.167322 0.257346 0 0 0
125 8 2 -6.09793 0.265362 -0.150141 1 0 0
126 8 2 -5.96207 1.10487 0.26628 1 0 0
127 8 2 5.88966 1.52084 0.914912 0 0 0
128 8 2 5.2919 1.42687 0.128622 0 0 0
ITEM: TIMESTEP
600
ITEM: NUMBER OF ATOMS
128
ITEM: BOX BOUNDS pp pp pp
-6.2010977310080699e+00 6.2010977310080699e+00
-2.1200334123104558e+00 2.1200334123104558e+00
-2.1200334123104558e+00 2.1200334123104558e+00
ITEM: ATOMS id mol type x y z ix iy iz
1 1 1 -5.06341 0.272147 -2.05641 0 0 0
2 1 1 -5.25596 -0.431907 -1.39926 0 0 0
3 1 1 -5.17417 -0.788979 -0.535592 0 0 0
4 1 1 -4.39605 -1.40178 -0.589454 0 0 0
5 1 1 -4.72539 -1.52589 0.259194 0 0 0
6 1 1 -4.0812 -0.822248 0.407754 0 0 0
7 1 1 -3.21431 -0.472345 0.164453 0 0 0
8 1 1 -3.10957 -1.43129 0.0854351 0 0 0
9 1 2 -2.20622 -0.96431 0.297953 0 0 0
10 1 2 -2.46946 -0.939363 -0.628828 0 0 0
11 1 2 -1.51816 -0.883187 -0.848089 0 0 0
12 1 2 -1.34168 -1.49239 -0.120851 0 0 0
13 1 2 -0.392955 -1.58415 -0.0187435 0 0 0
14 1 2 -0.0954348 -0.654027 -0.00356266 0 0 0
15 1 2 0.738872 -1.25552 -0.0311327 0 0 0
16 1 2 1.25728 -0.780751 -0.7095 0 0 0
17 2 1 -2.18936 -0.68785 -2.00409 0 0 0
18 2 1 -1.50164 -1.09485 1.76194 0 0 -1
19 2 1 -0.600452 -1.00417 1.17222 0 0 -1
20 2 1 0.0699806 -0.77014 1.81255 0 0 -1
21 2 1 0.800464 -0.117376 1.57868 0 0 -1
22 2 1 1.7546 -0.112304 1.24529 0 0 -1
23 2 1 1.34368 -0.20225 0.386975 0 0 -1
24 2 1 1.66466 0.384851 -0.384041 0 0 -1
25 2 2 2.52146 0.751877 -0.499315 0 0 -1
26 2 2 2.85767 1.25488 0.31175 0 0 -1
27 2 2 2.93864 1.84746 1.03426 0 0 -1
28 2 2 3.65819 1.92569 1.60056 0 0 -1
29 2 2 3.84367 -1.38631 1.16871 0 1 -1
30 2 2 4.44952 -0.862516 1.64049 0 1 -1
31 2 2 5.22987 -1.07005 1.03906 0 1 -1
32 2 2 4.66193 -0.501209 0.550417 0 1 -1
33 3 1 -3.71748 2.03582 -0.496754 0 0 0
34 3 1 -3.34349 -1.6479 -1.18078 0 1 0
35 3 1 -3.33553 1.76226 -1.74218 0 0 0
36 3 1 -2.47026 2.06262 -1.54212 0 0 0
37 3 1 -1.613 -1.69881 -1.47337 0 1 0
38 3 1 -1.23644 1.90034 -0.843618 0 0 0
39 3 1 -0.330116 1.66069 -0.441486 0 0 0
40 3 1 0.383209 1.79757 0.231651 0 0 0
41 3 2 0.694835 1.96577 -0.6849 0 0 0
42 3 2 1.48923 1.59981 -1.17088 0 0 0
43 3 2 2.07757 -2.05099 -0.572759 0 1 0
44 3 2 2.70553 -1.80243 -1.36203 0 1 0
45 3 2 3.40147 1.78768 -1.40471 0 0 0
46 3 2 4.33649 1.51386 -1.49474 0 0 0
47 3 2 5.09865 1.82158 -1.9619 0 0 0
48 3 2 5.49776 1.12128 -1.40998 0 0 0
49 4 1 -4.28692 0.710151 1.23559 0 -1 0
50 4 1 -4.65985 1.58341 1.00999 0 -1 0
51 4 1 -4.69182 1.43739 0.068905 0 -1 0
52 4 1 -4.81154 1.84513 -0.858786 0 -1 0
53 4 1 -4.1796 1.09899 -0.868787 0 -1 0
54 4 1 -4.19496 0.216009 -0.381849 0 -1 0
55 4 1 -3.54652 0.830316 -0.0305499 0 -1 0
56 4 1 -2.63059 1.02409 -0.40614 0 -1 0
57 4 2 -2.25523 1.88737 -0.446966 0 -1 0
58 4 2 -1.55564 1.68857 0.191066 0 -1 0
59 4 2 -1.24083 2.006 1.05031 0 -1 0
60 4 2 -0.319366 1.85881 1.38313 0 -1 0
61 4 2 0.528372 -2.04983 1.51196 0 0 0
62 4 2 0.451578 -2.03653 -1.77912 0 0 1
63 4 2 0.0453889 1.43126 -2.02099 0 -1 1
64 4 2 -0.844349 1.78755 -1.8703 0 -1 1
65 5 1 0.376942 -1.12123 -1.24551 0 0 0
66 5 1 -0.0734784 -0.329481 -1.17461 0 0 0
67 5 1 0.761951 0.0513187 -1.45272 0 0 0
68 5 1 1.44511 0.564421 -1.79232 0 0 0
69 5 1 2.0514 1.20661 2.10105 0 0 -1
70 5 1 2.40221 0.309454 -1.99833 0 0 0
71 5 1 3.37227 0.211067 -2.001 0 0 0
72 5 1 3.26663 0.227641 -0.985556 0 0 0
73 5 2 2.44336 -0.320257 -1.06795 0 0 0
74 5 2 3.11645 -0.90512 -0.757308 0 0 0
75 5 2 3.91799 -0.620591 -1.12684 0 0 0
76 5 2 4.80762 -0.598867 -0.839747 0 0 0
77 5 2 5.72058 -0.313068 -1.18584 0 0 0
78 5 2 5.63632 -0.76193 -0.315133 0 0 0
79 5 2 6.17862 -1.47614 -0.012936 0 0 0
80 5 2 -5.59417 -1.6521 0.705338 1 0 0
81 6 1 -3.65745 -1.94084 1.00289 0 1 0
82 6 1 -2.77501 1.96485 1.2977 0 0 0
83 6 1 -2.72074 1.24673 0.698095 0 0 0
84 6 1 -2.98959 0.507703 1.37944 0 0 0
85 6 1 -2.04881 0.244292 1.06514 0 0 0
86 6 1 -1.84307 0.511728 1.94605 0 0 0
87 6 1 -1.17674 0.824083 1.40901 0 0 0
88 6 1 -0.549729 0.368141 2.02037 0 0 0
89 6 2 -0.458434 0.176644 1.09274 0 0 0
90 6 2 -0.284968 0.924221 0.539682 0 0 0
91 6 2 0.408613 0.840771 1.11144 0 0 0
92 6 2 1.10389 1.44732 1.10513 0 0 0
93 6 2 1.64835 2.18164 0.730295 0 0 0
94 6 2 1.79709 -1.63896 1.54878 0 1 0
95 6 2 1.75151 -0.90017 -2.09945 0 1 1
96 6 2 2.67521 -0.982791 -2.12555 0 1 1
97 7 1 -5.54427 -2.0786 -2.10903 0 0 1
98 7 1 -5.72687 1.36329 -1.62176 0 -1 1
99 7 1 -6.05317 2.05315 -1.05001 0 -1 1
100 7 1 5.95729 -1.46718 -1.57083 -1 0 1
101 7 1 5.27657 -1.13325 2.09845 -1 0 0
102 7 1 5.07575 -0.164692 -1.99067 -1 0 1
103 7 1 5.82796 0.228304 1.81088 -1 0 0
104 7 1 -5.76669 0.468393 1.40306 0 0 0
105 7 2 -5.51983 -0.430516 1.12237 0 0 0
106 7 2 -4.68404 -0.678712 1.57731 0 0 0
107 7 2 -4.26728 -0.511549 -1.88135 0 0 1
108 7 2 -3.30036 -0.46467 -1.92096 0 0 1
109 7 2 -3.33856 0.201814 -1.26768 0 0 1
110 7 2 -2.63255 0.722109 -1.57298 0 0 1
111 7 2 -2.08548 0.0565237 -1.2149 0 0 1
112 7 2 -1.12614 0.0629006 -1.25956 0 0 1
113 8 1 3.91738 0.712056 1.55912 0 -1 0
114 8 1 4.37564 0.583693 0.733543 0 -1 0
115 8 1 4.49515 1.49321 1.00586 0 -1 0
116 8 1 3.88001 1.66369 0.291993 0 -1 0
117 8 1 4.10868 -1.76667 -0.248078 0 0 0
118 8 1 3.16168 -1.8712 0.0676583 0 0 0
119 8 1 2.6338 -1.17747 0.303272 0 0 0
120 8 1 2.84249 -0.28451 0.255885 0 0 0
121 8 2 3.73442 -0.109126 0.0967579 0 0 0
122 8 2 4.24476 0.611053 -0.367905 0 0 0
123 8 2 5.16381 0.548895 -0.0594648 0 0 0
124 8 2 5.89094 0.242216 0.471276 0 0 0
125 8 2 -5.90832 0.717495 -0.0135275 1 0 0
126 8 2 -5.76306 1.32679 0.799839 1 0 0
127 8 2 5.71354 1.48441 0.913157 0 0 0
128 8 2 5.20742 1.96377 0.179897 0 0 0
ITEM: TIMESTEP
800
ITEM: NUMBER OF ATOMS
128
ITEM: BOX BOUNDS pp pp pp
-6.2010977310080699e+00 6.2010977310080699e+00
-2.1200334123104558e+00 2.1200334123104558e+00
-2.1200334123104558e+00 2.1200334123104558e+00
ITEM: ATOMS id mol type x y z ix iy iz
1 1 1 -4.52544 -0.0325118 -1.28691 0 0 0
2 1 1 -5.43437 0.163041 -1.45472 0 0 0
3 1 1 -5.32024 -0.236592 -0.557829 0 0 0
4 1 1 -4.7866 -0.98116 -0.490398 0 0 0
5 1 1 -4.63053 -1.44939 0.318846 0 0 0
6 1 1 -4.44996 -0.517273 0.427224 0 0 0
7 1 1 -3.62786 -0.104546 0.652781 0 0 0
8 1 1 -3.56501 -1.07174 0.689965 0 0 0
9 1 2 -2.69533 -0.674029 0.38406 0 0 0
10 1 2 -2.17918 -0.639515 -0.392724 0 0 0
11 1 2 -1.26413 -0.679348 -0.256895 0 0 0
12 1 2 -1.22217 -1.22801 0.528734 0 0 0
13 1 2 -0.387522 -1.11555 -0.0747577 0 0 0
14 1 2 0.428009 -0.654152 0.130016 0 0 0
15 1 2 1.0438 -1.36941 0.0754516 0 0 0
16 1 2 1.83956 -1.28736 -0.420993 0 0 0
17 2 1 -2.34744 -1.42531 1.40427 0 0 -1
18 2 1 -1.45118 -1.01056 1.52615 0 0 -1
19 2 1 -0.434131 -0.980597 1.45213 0 0 -1
20 2 1 0.195448 -0.818658 -2.09569 0 0 0
21 2 1 0.976723 -0.94471 1.50966 0 0 -1
22 2 1 1.19466 -0.118888 1.15459 0 0 -1
23 2 1 1.75466 -0.535636 0.543376 0 0 -1
24 2 1 2.08367 0.184878 -0.087378 0 0 -1
25 2 2 2.14067 0.948207 -0.64715 0 0 -1
26 2 2 2.54499 1.44844 0.0720098 0 0 -1
27 2 2 2.41001 1.5973 1.02177 0 0 -1
28 2 2 3.12482 1.69281 1.56771 0 0 -1
29 2 2 3.80413 -1.88403 1.32812 0 1 -1
30 2 2 4.0769 -1.05238 1.53074 0 1 -1
31 2 2 4.84356 -1.55266 1.18147 0 1 -1
32 2 2 4.8286 -0.663964 0.693799 0 1 -1
33 3 1 -3.16377 -1.57525 -0.353417 0 1 0
34 3 1 -3.79531 -1.54655 -1.08596 0 1 0
35 3 1 -3.43028 -1.64686 -1.96806 0 1 0
36 3 1 -2.42267 -1.5152 -1.78211 0 1 0
37 3 1 -1.74424 1.99637 -1.9879 0 0 0
38 3 1 -0.902131 -2.02821 -1.52896 0 1 0
39 3 1 -0.416291 1.46725 -1.15749 0 0 0
40 3 1 0.256712 1.48649 -0.461145 0 0 0
41 3 2 1.15432 1.44738 -0.852827 0 0 0
42 3 2 1.30958 -2.01387 -1.42356 0 1 0
43 3 2 2.25683 -2.06649 -1.45002 0 1 0
44 3 2 3.13586 -1.69614 -1.49086 0 1 0
45 3 2 3.76642 1.86414 -1.41191 0 0 0
46 3 2 4.6178 -2.03059 -1.72971 0 1 0
47 3 2 4.6193 1.29049 -2.09521 0 0 0
48 3 2 5.38099 1.53217 -1.44284 0 0 0
49 4 1 -4.13625 1.02253 1.33109 0 -1 0
50 4 1 -4.76786 1.70075 1.32934 0 -1 0
51 4 1 -4.79666 1.41445 0.431043 0 -1 0
52 4 1 -4.32857 1.76871 -0.342845 0 -1 0
53 4 1 -4.56442 1.28062 -1.15775 0 -1 0
54 4 1 -4.48146 0.696037 -0.297643 0 -1 0
55 4 1 -3.67439 0.948768 0.212586 0 -1 0
56 4 1 -2.70294 1.11588 0.0948807 0 -1 0
57 4 2 -2.25722 1.84668 -0.325921 0 -1 0
58 4 2 -1.61911 1.6055 0.366423 0 -1 0
59 4 2 -1.89292 1.96291 1.15717 0 -1 0
60 4 2 -0.875317 1.8643 1.22595 0 -1 0
61 4 2 -0.0933954 -1.91323 1.05867 0 0 0
62 4 2 -0.00838697 1.98237 1.99216 0 -1 0
63 4 2 -0.0105947 1.01213 -2.07441 0 -1 1
64 4 2 -0.78438 0.650797 -1.70877 0 -1 1
65 5 1 0.0742003 -0.460069 -1.03332 0 0 0
66 5 1 0.274311 0.530569 -0.887589 0 0 0
67 5 1 0.652845 0.323868 -1.75155 0 0 0
68 5 1 1.10026 1.03157 2.0822 0 0 -1
69 5 1 1.89815 1.37538 -1.91954 0 0 0
70 5 1 1.99751 0.529539 1.8801 0 0 -1
71 5 1 2.52857 0.556064 -1.55826 0 0 0
72 5 1 3.13489 0.902862 -0.808849 0 0 0
73 5 2 2.93652 -0.107077 -0.688055 0 0 0
74 5 2 3.5261 -0.821444 -0.907217 0 0 0
75 5 2 4.34038 -0.661485 -1.38768 0 0 0
76 5 2 4.96223 0.00750904 -1.18642 0 0 0
77 5 2 5.8793 -0.0278675 -0.873169 0 0 0
78 5 2 6.18568 -0.841323 -0.351892 0 0 0
79 5 2 -5.71966 -1.44708 0.237643 1 0 0
80 5 2 5.81775 -1.18275 0.579738 0 0 0
81 6 1 -3.39138 1.86165 1.45981 0 0 0
82 6 1 -3.00504 1.93334 0.639302 0 0 0
83 6 1 -2.70999 1.25234 1.21304 0 0 0
84 6 1 -2.75905 0.259276 1.25053 0 0 0
85 6 1 -1.85869 0.193645 0.906098 0 0 0
86 6 1 -1.93308 0.704007 1.68893 0 0 0
87 6 1 -1.12293 0.814189 1.17611 0 0 0
88 6 1 -0.804227 -0.00918518 1.4707 0 0 0
89 6 2 -0.574555 0.195832 0.526459 0 0 0
90 6 2 0.0740248 0.862856 0.502454 0 0 0
91 6 2 1.05961 0.941037 0.688686 0 0 0
92 6 2 1.40599 1.72985 0.356022 0 0 0
93 6 2 1.53349 -1.81722 0.967875 0 1 0
94 6 2 1.89105 -1.84526 1.82463 0 1 0
95 6 2 2.11546 -1.16016 -1.81071 0 1 1
96 6 2 2.97582 -0.870689 2.04877 0 1 0
97 7 1 -5.91342 0.869674 1.98536 0 -1 0
98 7 1 -5.67213 1.60131 -1.64932 0 -1 1
99 7 1 -5.68919 1.72544 -0.701328 0 -1 1
100 7 1 -6.1891 -1.76672 -1.11448 0 0 1
101 7 1 6.19047 -1.25805 -1.97137 -1 0 1
102 7 1 5.49218 -1.01482 1.69394 -1 0 0
103 7 1 6.08873 -0.437941 1.2387 -1 0 0
104 7 1 -5.56469 -0.03719 1.67467 0 0 0
105 7 2 -5.38269 -0.771865 1.0951 0 0 0
106 7 2 -5.11736 -1.5977 1.50689 0 0 0
107 7 2 -4.56347 -1.6512 -1.99572 0 0 1
108 7 2 -4.31283 -0.685437 -2.06556 0 0 1
109 7 2 -3.49204 -0.34218 -1.64518 0 0 1
110 7 2 -3.5082 0.551887 -1.19795 0 0 1
111 7 2 -2.63938 0.654049 -1.53301 0 0 1
112 7 2 -1.8287 0.885849 -1.00852 0 0 1
113 8 1 4.31573 0.151637 1.86854 0 -1 0
114 8 1 4.72374 0.577917 1.08022 0 -1 0
115 8 1 4.86912 1.42092 0.69833 0 -1 0
116 8 1 4.51488 1.55835 -0.188344 0 -1 0
117 8 1 3.73939 1.9088 0.172376 0 -1 0
118 8 1 3.76913 -1.3715 0.300136 0 0 0
119 8 1 2.90902 -1.0589 0.607478 0 0 0
120 8 1 2.98607 -0.112162 0.432913 0 0 0
121 8 2 3.88074 -0.192502 0.836784 0 0 0
122 8 2 4.42308 -0.148022 0.00371055 0 0 0
123 8 2 5.24513 0.457796 0.110357 0 0 0
124 8 2 6.05527 0.494185 0.539575 0 0 0
125 8 2 -5.68922 0.684837 -0.116668 1 0 0
126 8 2 -5.78242 1.43943 0.568146 1 0 0
127 8 2 5.8358 1.95919 0.78316 0 0 0
128 8 2 5.22246 -1.93981 0.158795 0 1 0
ITEM: TIMESTEP
1000
ITEM: NUMBER OF ATOMS
128
ITEM: BOX BOUNDS pp pp pp
-6.2010977310080699e+00 6.2010977310080699e+00
-2.1200334123104558e+00 2.1200334123104558e+00
-2.1200334123104558e+00 2.1200334123104558e+00
ITEM: ATOMS id mol type x y z ix iy iz
1 1 1 -4.24423 -0.412417 -1.13873 0 0 0
2 1 1 -4.70211 0.364015 -1.42199 0 0 0
3 1 1 -5.37024 0.263852 -0.661008 0 0 0
4 1 1 -5.14497 -0.658272 -0.43749 0 0 0
5 1 1 -4.24713 -0.577311 -0.0901375 0 0 0
6 1 1 -4.89222 -0.00615981 0.412666 0 0 0
7 1 1 -4.08401 -0.107988 0.889378 0 0 0
8 1 1 -3.578 -0.908812 1.00764 0 0 0
9 1 2 -2.9906 -0.260197 0.605503 0 0 0
10 1 2 -2.36906 -0.409152 -0.112385 0 0 0
11 1 2 -1.44474 -0.202277 -0.305332 0 0 0
12 1 2 -0.968208 -0.988394 -0.19048 0 0 0
13 1 2 0.0249611 -0.892177 -0.119587 0 0 0
14 1 2 0.82317 -0.351983 -0.0662449 0 0 0
15 1 2 1.57611 -0.948318 -0.167593 0 0 0
16 1 2 2.27847 -1.52979 0.284629 0 0 0
17 2 1 -2.05124 -1.03032 1.01632 0 0 -1
18 2 1 -1.48076 -0.652862 1.7388 0 0 -1
19 2 1 -0.63803 -1.01202 2.08451 0 0 -1
20 2 1 0.208072 -1.06704 -1.75389 0 0 0
21 2 1 0.373625 -1.22829 1.56573 0 0 -1
22 2 1 0.931461 -0.441296 1.61084 0 0 -1
23 2 1 1.57571 -0.42957 0.926425 0 0 -1
24 2 1 1.81125 0.145406 0.160262 0 0 -1
25 2 2 2.15014 0.704614 -0.503713 0 0 -1
26 2 2 2.92164 0.986751 -0.0918892 0 0 -1
27 2 2 2.40419 1.26515 0.674643 0 0 -1
28 2 2 2.4734 1.32251 1.58075 0 0 -1
29 2 2 3.42605 1.5257 1.87694 0 0 -1
30 2 2 3.51871 -1.87917 1.50217 0 1 -1
31 2 2 4.2932 2.01886 1.1376 0 0 -1
32 2 2 4.93546 -1.38866 1.31686 0 1 -1
33 3 1 -3.23508 -1.87927 -0.652215 0 1 0
34 3 1 -3.89399 -1.63427 -1.21529 0 1 0
35 3 1 -3.02156 -1.1812 -1.44917 0 1 0
36 3 1 -2.08108 -1.44852 -1.70008 0 1 0
37 3 1 -1.89956 1.83041 -1.62864 0 0 0
38 3 1 -1.02586 -1.99723 -1.56926 0 1 0
39 3 1 -0.921739 1.48079 -0.944324 0 0 0
40 3 1 -0.210825 -2.0751 -0.976323 0 1 0
41 3 2 0.64973 1.97563 -1.37323 0 0 0
42 3 2 1.55168 1.95652 -1.13812 0 0 0
43 3 2 2.35816 -1.80057 -1.36324 0 1 0
44 3 2 3.33711 -1.8778 -1.19314 0 1 0
45 3 2 4.28248 -1.87711 -0.958667 0 1 0
46 3 2 5.13133 -1.67603 -1.2642 0 1 0
47 3 2 4.95416 2.06989 -2.07595 0 0 0
48 3 2 4.99201 1.45801 -1.28754 0 0 0
49 4 1 -4.42342 1.18408 1.95841 0 -1 0
50 4 1 -4.47304 0.887241 1.06421 0 -1 0
51 4 1 -4.86998 1.68691 0.756569 0 -1 0
52 4 1 -4.44685 2.08729 0.00173701 0 -1 0
53 4 1 -3.91468 1.57372 -0.560597 0 -1 0
54 4 1 -4.3101 0.688431 -0.433248 0 -1 0
55 4 1 -3.40976 0.5879 -0.00206592 0 -1 0
56 4 1 -2.43773 0.84001 -0.176687 0 -1 0
57 4 2 -2.33346 1.69055 0.26063 0 -1 0
58 4 2 -1.48696 1.24444 0.135501 0 -1 0
59 4 2 -1.34403 1.66145 0.957867 0 -1 0
60 4 2 -0.844808 -1.78331 0.874452 0 0 0
61 4 2 -0.287643 1.84515 0.475745 0 -1 0
62 4 2 -0.190794 1.55923 1.43215 0 -1 0
63 4 2 -0.867466 1.3412 2.14069 0 -1 0
64 4 2 -0.346709 0.558664 1.95533 0 -1 0
65 5 1 -0.0575523 -0.0790806 -0.996477 0 0 0
66 5 1 0.801667 0.31425 -0.823463 0 0 0
67 5 1 0.926678 0.0938624 -1.73086 0 0 0
68 5 1 0.570154 0.712191 1.70727 0 0 -1
69 5 1 1.4083 1.2766 1.81247 0 0 -1
70 5 1 1.7012 0.379447 1.92059 0 0 -1
71 5 1 2.1871 0.727684 -1.53666 0 0 0
72 5 1 3.06159 0.635949 -1.95894 0 0 0
73 5 2 3.09336 0.138673 -1.13425 0 0 0
74 5 2 3.90412 -0.26383 -1.10737 0 0 0
75 5 2 4.73542 -0.68358 -1.0353 0 0 0
76 5 2 5.01043 0.124235 -1.39362 0 0 0
77 5 2 5.96298 0.100581 -1.15369 0 0 0
78 5 2 -6.11675 -0.302861 -0.311313 1 0 0
79 5 2 -6.19285 -1.18435 0.161013 1 0 0
80 5 2 5.65712 -0.685859 0.796263 0 0 0
81 6 1 -3.14932 -1.72288 1.8361 0 1 0
82 6 1 -3.20368 1.84528 0.997762 0 0 0
83 6 1 -3.40319 0.956508 1.15595 0 0 0
84 6 1 -3.00074 0.103689 1.52658 0 0 0
85 6 1 -2.13071 0.120231 1.15785 0 0 0
86 6 1 -1.34079 0.407394 1.52677 0 0 0
87 6 1 -0.780983 0.714342 0.844574 0 0 0
88 6 1 -0.646133 -0.272952 0.568879 0 0 0
89 6 2 -0.510222 0.459502 -0.122648 0 0 0
90 6 2 0.187289 0.850329 0.312144 0 0 0
91 6 2 0.981719 1.1609 0.773787 0 0 0
92 6 2 1.00238 2.13393 0.718052 0 0 0
93 6 2 1.85976 -2.02631 1.13988 0 1 0
94 6 2 2.22554 -1.23843 1.48592 0 1 0
95 6 2 2.66881 -0.380518 1.59983 0 1 0
96 6 2 2.79102 -0.725512 -1.73601 0 1 1
97 7 1 5.86919 0.896788 -1.79412 -1 -1 1
98 7 1 -5.56569 1.02491 -1.72597 0 -1 1
99 7 1 -5.77714 1.60345 -0.912249 0 -1 1
100 7 1 -6.19398 -1.81967 -1.22828 0 0 1
101 7 1 -5.52593 -1.18063 -1.63056 0 0 1
102 7 1 -6.10873 -1.19615 1.88362 0 0 0
103 7 1 5.96259 -0.289473 1.89335 -1 0 0
104 7 1 -5.51352 -0.391271 1.6097 0 0 0
105 7 2 -5.04096 -1.14082 1.29049 0 0 0
106 7 2 -5.47135 -2.02886 1.35768 0 0 0
107 7 2 -4.73465 -1.95736 1.95807 0 0 0
108 7 2 -4.28871 -1.16327 -2.09484 0 0 1
109 7 2 -3.60795 -0.496874 -2.06116 0 0 1
110 7 2 -2.8625 -0.0136494 -1.54053 0 0 1
111 7 2 -3.6217 0.568426 -1.45212 0 0 1
112 7 2 -3.1046 1.36088 -1.3068 0 0 1
113 8 1 4.56379 -0.325242 1.94393 0 -1 0
114 8 1 4.98601 0.42973 1.61235 0 -1 0
115 8 1 4.94466 1.05102 0.827381 0 -1 0
116 8 1 4.43884 1.22716 -0.0201955 0 -1 0
117 8 1 3.69426 1.5227 0.450655 0 -1 0
118 8 1 3.51262 -1.90098 -0.0406505 0 0 0
119 8 1 3.63221 -1.02427 0.293321 0 0 0
120 8 1 3.49539 -0.294263 0.882739 0 0 0
121 8 2 3.88954 0.445805 0.507169 0 0 0
122 8 2 4.45348 0.268133 -0.25205 0 0 0
123 8 2 5.37249 -0.00621544 -0.0256961 0 0 0
124 8 2 5.81389 0.636522 0.56441 0 0 0
125 8 2 -5.74555 0.926584 0.703151 1 0 0
126 8 2 -5.94809 1.57169 0.123971 1 0 0
127 8 2 5.60497 1.83559 0.615803 0 0 0
128 8 2 5.36942 -1.78124 -0.0959502 0 1 0
ITEM: TIMESTEP
1200
ITEM: NUMBER OF ATOMS
128
ITEM: BOX BOUNDS pp pp pp
-6.2010977310080699e+00 6.2010977310080699e+00
-2.1200334123104558e+00 2.1200334123104558e+00
-2.1200334123104558e+00 2.1200334123104558e+00
ITEM: ATOMS id mol type x y z ix iy iz
1 1 1 -4.35991 -1.03846 -1.16178 0 0 0
2 1 1 -4.75678 -0.314769 -1.7271 0 0 0
3 1 1 -4.9515 0.0737177 -0.857265 0 0 0
4 1 1 -4.89964 -0.661398 -0.247172 0 0 0
5 1 1 -4.02711 -0.389478 0.0585375 0 0 0
6 1 1 -4.82099 0.100188 0.433186 0 0 0
7 1 1 -4.48804 -0.436691 1.15493 0 0 0
8 1 1 -3.73113 -1.01291 0.995693 0 0 0
9 1 2 -3.06566 -0.510973 0.501304 0 0 0
10 1 2 -2.34817 -0.411512 -0.126653 0 0 0
11 1 2 -1.55523 -0.6616 -0.638441 0 0 0
12 1 2 -0.546515 -0.400858 -0.719682 0 0 0
13 1 2 0.166629 -1.01257 -0.245898 0 0 0
14 1 2 1.00159 -1.50579 -0.245239 0 0 0
15 1 2 1.69295 -0.788053 -0.101262 0 0 0
16 1 2 1.99633 -1.26709 -0.834408 0 0 0
17 2 1 -1.45881 -0.8687 0.698848 0 0 -1
18 2 1 -1.3679 -1.01364 1.65115 0 0 -1
19 2 1 -0.952241 -0.334029 -2.00262 0 0 0
20 2 1 -0.128831 -0.86137 -1.75408 0 0 0
21 2 1 0.0366641 -1.29667 1.61723 0 0 -1
22 2 1 0.991488 -1.28097 1.59084 0 0 -1
23 2 1 1.20693 -0.583669 0.894194 0 0 -1
24 2 1 1.4695 0.209246 0.486468 0 0 -1
25 2 2 1.59892 0.25366 -0.47099 0 0 -1
26 2 2 2.60294 0.414848 -0.598335 0 0 -1
27 2 2 2.70105 0.992374 0.126704 0 0 -1
28 2 2 2.60207 1.37494 0.979979 0 0 -1
29 2 2 2.95406 1.70187 1.93913 0 0 -1
30 2 2 3.25453 -1.67477 1.58544 0 1 -1
31 2 2 4.11769 -1.87487 1.83403 0 1 -1
32 2 2 5.07957 -1.84094 1.59074 0 1 -1
33 3 1 -3.29138 -1.37797 0.101027 0 1 0
34 3 1 -3.51151 -1.73369 -0.745869 0 1 0
35 3 1 -2.61458 -1.43989 -0.579388 0 1 0
36 3 1 -2.16899 -1.22115 -1.37962 0 1 0
37 3 1 -2.07538 2.03715 -1.34253 0 0 0
38 3 1 -1.14566 -2.06099 -1.21837 0 1 0
39 3 1 -0.42729 1.89994 -0.621644 0 0 0
40 3 1 0.179458 -2.02458 -1.32545 0 1 0
41 3 2 1.12011 -1.91271 -1.27769 0 1 0
42 3 2 1.70174 1.60828 -1.6344 0 0 0
43 3 2 2.57271 1.70775 -1.30166 0 0 0
44 3 2 3.06537 -1.72962 -1.48882 0 1 0
45 3 2 3.90179 -1.33442 -1.68176 0 1 0
46 3 2 4.81521 -1.4065 -1.52989 0 1 0
47 3 2 4.80923 1.82034 -1.48478 0 0 0
48 3 2 4.43314 1.40953 -0.658285 0 0 0
49 4 1 -4.17698 1.56502 2.08809 0 -1 0
50 4 1 -4.61235 1.09439 1.42401 0 -1 0
51 4 1 -4.41177 2.01264 1.10193 0 -1 0
52 4 1 -4.47898 -1.9279 0.210183 0 0 0
53 4 1 -3.66116 1.84178 0.118334 0 -1 0
54 4 1 -4.2236 1.01806 0.327537 0 -1 0
55 4 1 -3.51045 0.917757 -0.392316 0 -1 0
56 4 1 -2.5794 0.830506 -0.434375 0 -1 0
57 4 2 -2.19226 1.04545 0.482026 0 -1 0
58 4 2 -1.39425 1.51612 0.313347 0 -1 0
59 4 2 -1.61257 -1.89125 0.786757 0 0 0
60 4 2 -0.785448 -1.7171 0.27491 0 0 0
61 4 2 -0.305941 1.74649 0.528219 0 -1 0
62 4 2 -0.75848 1.75957 1.33185 0 -1 0
63 4 2 -1.19976 1.19715 1.94051 0 -1 0
64 4 2 -0.256759 0.926976 1.75287 0 -1 0
65 5 1 0.19675 0.173441 -1.70318 0 0 0
66 5 1 0.862794 0.710364 -1.24107 0 0 0
67 5 1 1.34833 -0.0239025 -1.68942 0 0 0
68 5 1 0.868344 0.589077 2.01235 0 0 -1
69 5 1 1.25712 1.00557 1.19236 0 0 -1
70 5 1 2.03715 0.593621 1.52664 0 0 -1
71 5 1 2.45604 0.783001 -1.84009 0 0 0
72 5 1 3.16898 0.38657 1.8864 0 0 -1
73 5 2 3.65571 0.637253 -1.62364 0 0 0
74 5 2 3.65536 -0.251458 -1.34688 0 0 0
75 5 2 4.47192 -0.531514 -0.920275 0 0 0
76 5 2 5.28172 -0.461875 -1.37722 0 0 0
77 5 2 5.78968 0.179929 -0.974992 0 0 0
78 5 2 -6.11956 -0.438119 -0.365117 1 0 0
79 5 2 5.78339 -0.667841 0.444835 0 0 0
80 5 2 5.65879 -0.598642 1.42991 0 0 0
81 6 1 -2.73821 -1.26475 1.44432 0 1 0
82 6 1 -2.4166 1.99286 1.42013 0 0 0
83 6 1 -3.10479 1.43687 1.07543 0 0 0
84 6 1 -2.88454 0.457676 0.777592 0 0 0
85 6 1 -2.19976 -0.19254 0.930588 0 0 0
86 6 1 -1.7608 0.478067 1.43848 0 0 0
87 6 1 -0.930315 0.526869 0.930513 0 0 0
88 6 1 -0.355543 -0.101975 0.349211 0 0 0
89 6 2 -0.520117 0.755564 -0.0267711 0 0 0
90 6 2 0.411945 0.955403 0.0961227 0 0 0
91 6 2 1.10874 1.59446 0.121308 0 0 0
92 6 2 1.06663 1.989 0.983542 0 0 0
93 6 2 1.97484 -1.85414 1.18376 0 1 0
94 6 2 1.87529 -1.51685 2.08654 0 1 0
95 6 2 2.58829 -0.827304 -2.08363 0 1 1
96 6 2 2.59493 -0.398707 -1.23616 0 1 1
97 7 1 6.00411 1.59497 1.7852 -1 -1 0
98 7 1 -5.943 0.924373 -1.90569 0 -1 1
99 7 1 -5.88246 1.47963 -1.07162 0 -1 1
100 7 1 -5.45329 -1.94505 -0.670189 0 0 1
101 7 1 -6.09237 -1.39061 -1.10368 0 0 1
102 7 1 6.03872 -1.18608 -1.98311 -1 0 1
103 7 1 -5.88927 -0.359824 -2.00714 0 0 1
104 7 1 -5.52969 -0.224536 1.36196 0 0 0
105 7 2 -5.52975 -1.05913 0.954866 0 0 0
106 7 2 -5.85012 -1.79071 1.47243 0 0 0
107 7 2 -5.14285 -1.65416 2.02793 0 0 0
108 7 2 -4.24956 -1.21213 1.96658 0 0 0
109 7 2 -3.37478 -0.787928 2.10213 0 0 0
110 7 2 -2.99438 -0.487515 -1.28886 0 0 1
111 7 2 -3.46984 0.321357 -1.42374 0 0 1
112 7 2 -3.76485 0.396676 1.87807 0 0 0
113 8 1 4.64811 -0.485452 1.75642 0 -1 0
114 8 1 4.92069 0.38631 1.82277 0 -1 0
115 8 1 4.14569 0.90475 1.58758 0 -1 0
116 8 1 4.52517 1.54999 0.986157 0 -1 0
117 8 1 3.63301 1.37818 0.782269 0 -1 0
118 8 1 3.24037 2.05941 0.239091 0 -1 0
119 8 1 3.81257 -1.46488 0.48019 0 0 0
120 8 1 4.60872 -0.998467 0.304653 0 0 0
121 8 2 4.00348 -0.229376 0.097757 0 0 0
122 8 2 4.4426 0.605417 0.169351 0 0 0
123 8 2 5.26075 0.294469 0.526538 0 0 0
124 8 2 6.21692 0.428032 0.438251 0 0 0
125 8 2 -5.58645 1.11071 0.526777 1 0 0
126 8 2 -5.98407 1.90025 0.265503 1 0 0
127 8 2 5.42255 1.89443 0.156933 0 0 0
128 8 2 5.11026 -1.56533 -0.268955 0 1 0
ITEM: TIMESTEP
1400
ITEM: NUMBER OF ATOMS
128
ITEM: BOX BOUNDS pp pp pp
-6.2010977310080699e+00 6.2010977310080699e+00
-2.1200334123104558e+00 2.1200334123104558e+00
-2.1200334123104558e+00 2.1200334123104558e+00
ITEM: ATOMS id mol type x y z ix iy iz
1 1 1 -4.50138 -1.42028 -1.16881 0 0 0
2 1 1 -4.67985 -0.615909 -1.73918 0 0 0
3 1 1 -4.94884 -0.426267 -0.830617 0 0 0
4 1 1 -4.92585 -1.16986 -0.285544 0 0 0
5 1 1 -4.28813 -0.570692 0.0301394 0 0 0
6 1 1 -5.00422 -0.461279 0.629186 0 0 0
7 1 1 -4.44382 -0.707881 1.38202 0 0 0
8 1 1 -3.59269 -0.836877 0.891969 0 0 0
9 1 2 -2.76538 -0.539294 0.431675 0 0 0
10 1 2 -2.04126 -0.291493 -0.138891 0 0 0
11 1 2 -1.26308 -0.493268 -0.615182 0 0 0
12 1 2 -0.383082 -0.623807 -0.251729 0 0 0
13 1 2 0.584377 -0.513642 -0.231796 0 0 0
14 1 2 0.595247 -1.43096 -0.439473 0 0 0
15 1 2 1.56163 -1.32116 -0.45999 0 0 0
16 1 2 1.15376 -0.840218 -1.19159 0 0 0
17 2 1 -1.12435 -0.483926 0.747432 0 0 -1
18 2 1 -1.27682 -1.3417 1.19516 0 0 -1
19 2 1 -1.55216 -0.529247 1.71869 0 0 -1
20 2 1 -0.630126 -0.696825 2.07829 0 0 -1
21 2 1 -0.18704 -0.888305 1.21828 0 0 -1
22 2 1 0.525773 -1.35174 1.65817 0 0 -1
23 2 1 0.777927 -0.793972 0.9716 0 0 -1
24 2 1 1.57588 -0.531198 0.484194 0 0 -1
25 2 2 1.53818 -0.0810556 -0.381831 0 0 -1
26 2 2 2.3578 0.365414 0.0607942 0 0 -1
27 2 2 2.86066 1.13467 -0.0429587 0 0 -1
28 2 2 2.23358 1.61792 0.485787 0 0 -1
29 2 2 2.50446 -2.09428 1.21721 0 1 -1
30 2 2 3.18946 -2.03725 1.91375 0 1 -1
31 2 2 3.92941 -1.85648 1.37981 0 1 -1
32 2 2 4.75406 -2.08482 1.83508 0 1 -1
33 3 1 -3.66014 -1.24038 -0.526525 0 1 0
34 3 1 -2.96614 -1.66501 -0.964424 0 1 0
35 3 1 -2.06809 -1.49774 -0.551013 0 1 0
36 3 1 -1.76624 -1.483 -1.50626 0 1 0
37 3 1 -1.44491 1.84306 -1.75983 0 0 0
38 3 1 -0.770502 1.70635 -1.03623 0 0 0
39 3 1 -0.399897 -1.86419 -1.76514 0 1 0
40 3 1 0.486008 1.93483 2.04351 0 0 -1
41 3 2 1.35343 2.08188 -1.79537 0 0 0
42 3 2 1.92584 1.33351 -1.4436 0 0 0
43 3 2 2.31096 1.79621 -0.668793 0 0 0
44 3 2 2.98955 -1.79206 -0.789011 0 1 0
45 3 2 3.44747 -1.13259 -1.23536 0 1 0
46 3 2 4.22372 -1.61165 -1.55796 0 1 0
47 3 2 3.89373 1.76454 -1.61142 0 0 0
48 3 2 4.12648 1.64024 -0.673469 0 0 0
49 4 1 -4.20342 1.78007 -1.3264 0 -1 1
50 4 1 -4.38191 1.77232 1.96289 0 -1 0
51 4 1 -4.76127 -2.1518 1.10607 0 0 0
52 4 1 -4.37578 1.69579 0.291311 0 -1 0
53 4 1 -3.55439 1.4041 0.771027 0 -1 0
54 4 1 -3.83978 0.532621 0.447136 0 -1 0
55 4 1 -3.86559 0.735444 -0.49406 0 -1 0
56 4 1 -3.02072 1.18678 -0.794089 0 -1 0
57 4 2 -2.16324 1.61964 -0.684862 0 -1 0
58 4 2 -1.37654 1.4006 -0.0785691 0 -1 0
59 4 2 -0.948049 -1.87044 -0.190733 0 0 0
60 4 2 -0.121474 -1.97276 0.254703 0 0 0
61 4 2 -0.348691 -2.08217 1.22869 0 0 0
62 4 2 -1.16768 1.74421 1.42961 0 -1 0
63 4 2 -0.463072 1.4055 1.9812 0 -1 0
64 4 2 0.21211 1.17409 1.34702 0 -1 0
65 5 1 -0.345786 -0.0128375 -1.2487 0 0 0
66 5 1 0.318635 0.570836 -0.916824 0 0 0
67 5 1 0.930699 0.45746 -1.69464 0 0 0
68 5 1 1.27354 0.454395 1.6466 0 0 -1
69 5 1 1.61593 0.607792 0.794637 0 0 -1
70 5 1 2.48865 0.68754 1.14549 0 0 -1
71 5 1 2.69228 0.530968 2.05843 0 0 -1
72 5 1 3.606 0.336727 -2.0859 0 0 0
73 5 2 3.40611 0.623345 -1.17177 0 0 0
74 5 2 3.51102 -0.0984662 -0.489722 0 0 0
75 5 2 4.23966 -0.24024 -1.16311 0 0 0
76 5 2 5.1856 -0.337247 -1.09161 0 0 0
77 5 2 5.46271 0.343652 -0.483477 0 0 0
78 5 2 5.96487 -0.359606 -0.0428664 0 0 0
79 5 2 5.65319 -0.461505 0.822418 0 0 0
80 5 2 5.38074 -1.20914 1.29096 0 0 0
81 6 1 -2.17496 -1.8449 0.803303 0 1 0
82 6 1 -2.51433 -1.71082 1.74352 0 1 0
83 6 1 -2.70813 1.61827 1.75393 0 0 0
84 6 1 -3.09161 0.693702 1.4924 0 0 0
85 6 1 -2.49229 0.118448 1.94862 0 0 0
86 6 1 -1.95931 0.799464 1.36356 0 0 0
87 6 1 -1.02587 0.612248 1.39888 0 0 0
88 6 1 -0.221369 0.114392 1.09006 0 0 0
89 6 2 0.15341 0.757156 0.46632 0 0 0
90 6 2 0.435332 1.4695 -0.180812 0 0 0
91 6 2 1.12874 1.98253 -0.58558 0 0 0
92 6 2 1.25958 2.05712 0.411152 0 0 0
93 6 2 1.57129 -1.57423 1.17468 0 1 0
94 6 2 2.25476 -1.30199 1.77506 0 1 0
95 6 2 1.98707 -0.416759 2.01352 0 1 0
96 6 2 2.42461 -0.762539 -1.36255 0 1 1
97 7 1 6.22098 1.25972 1.55364 -1 -1 0
98 7 1 -5.89217 1.74731 -1.94564 0 -1 1
99 7 1 -5.18881 1.18836 -1.69257 0 -1 1
100 7 1 -5.25297 1.89019 -1.07087 0 -1 1
101 7 1 -6.121 -2.0414 -1.04672 0 0 1
102 7 1 -6.18954 -1.20223 -1.5382 0 0 1
103 7 1 -5.98678 -0.33985 -1.87712 0 0 1
104 7 1 -5.6007 -0.313611 1.47094 0 0 0
105 7 2 -5.86627 -0.954801 0.814464 0 0 0
106 7 2 -5.76347 -1.2799 1.73977 0 0 0
107 7 2 -4.92554 -1.59185 -2.05303 0 0 1
108 7 2 -3.98469 -1.47769 2.09768 0 0 0
109 7 2 -3.43424 -0.78235 -1.77669 0 0 1
110 7 2 -3.70552 -0.128175 -1.14371 0 0 1
111 7 2 -3.23773 0.599076 -1.5518 0 0 1
112 7 2 -4.08523 0.225683 -2.0229 0 0 1
113 8 1 4.53594 -0.40162 2.0994 0 -1 0
114 8 1 4.58811 0.52242 -1.88668 0 -1 1
115 8 1 4.47838 1.08695 1.58536 0 -1 0
116 8 1 4.684 1.58326 0.754908 0 -1 0
117 8 1 3.75399 1.43335 0.585502 0 -1 0
118 8 1 3.19839 -2.00775 0.153305 0 0 0
119 8 1 4.1158 -1.62016 0.265311 0 0 0
120 8 1 4.53384 -0.799269 0.444927 0 0 0
121 8 2 4.66527 0.121719 0.1895 0 0 0
122 8 2 4.7782 0.197407 1.17903 0 0 0
123 8 2 5.5468 0.656052 0.867132 0 0 0
124 8 2 -5.93688 0.594879 0.671866 1 0 0
125 8 2 -5.48267 1.21243 0.115395 1 0 0
126 8 2 6.18844 1.15998 -0.514478 0 0 0
127 8 2 5.53598 1.79868 -0.0997935 0 0 0
128 8 2 5.18125 -1.59455 -0.2854 0 1 0
ITEM: TIMESTEP
1600
ITEM: NUMBER OF ATOMS
128
ITEM: BOX BOUNDS pp pp pp
-6.2010977310080699e+00 6.2010977310080699e+00
-2.1200334123104558e+00 2.1200334123104558e+00
-2.1200334123104558e+00 2.1200334123104558e+00
ITEM: ATOMS id mol type x y z ix iy iz
1 1 1 -4.47139 -1.09671 -1.04767 0 0 0
2 1 1 -4.96672 -0.342566 -1.37629 0 0 0
3 1 1 -5.45059 -0.51141 -0.533485 0 0 0
4 1 1 -5.341 -1.26872 0.0462759 0 0 0
5 1 1 -4.65288 -0.667866 0.128729 0 0 0
6 1 1 -4.91803 -0.328885 1.02963 0 0 0
7 1 1 -3.99371 -0.592173 1.03371 0 0 0
8 1 1 -3.05853 -0.728609 1.13358 0 0 0
9 1 2 -2.51193 -0.367781 0.468207 0 0 0
10 1 2 -2.19902 -0.0338742 -0.387509 0 0 0
11 1 2 -1.24805 -0.21664 -0.357787 0 0 0
12 1 2 -0.553972 -0.852394 -0.208116 0 0 0
13 1 2 0.400489 -0.809893 -0.388676 0 0 0
14 1 2 0.786818 -1.61644 -0.608973 0 0 0
15 1 2 1.30502 -0.828527 -0.823517 0 0 0
16 1 2 0.77817 -0.384696 -1.43892 0 0 0
17 2 1 -1.4019 -0.674896 0.592759 0 0 -1
18 2 1 -1.5557 -1.46398 1.02473 0 0 -1
19 2 1 -2.14419 -0.953308 1.67676 0 0 -1
20 2 1 -1.26436 -0.601043 1.58582 0 0 -1
21 2 1 -0.377183 -0.691917 1.3388 0 0 -1
22 2 1 0.475619 -0.354277 1.55783 0 0 -1
23 2 1 0.980715 -0.528529 0.801986 0 0 -1
24 2 1 1.45254 -1.01111 0.19591 0 0 -1
25 2 2 1.61473 -0.056787 0.0793828 0 0 -1
26 2 2 2.27437 -0.142297 0.793444 0 0 -1
27 2 2 2.76375 0.56043 0.333534 0 0 -1
28 2 2 2.13776 1.36586 -0.0521269 0 0 -1
29 2 2 2.7346 1.95027 0.464681 0 0 -1
30 2 2 2.56555 -1.87718 1.27861 0 1 -1
31 2 2 3.26094 -1.35098 1.7254 0 1 -1
32 2 2 4.17519 -1.451 1.96367 0 1 -1
33 3 1 -3.3612 -1.39872 -0.467958 0 1 0
34 3 1 -2.48942 -1.44095 -0.736175 0 1 0
35 3 1 -2.01296 -0.771095 -1.24529 0 1 0
36 3 1 -1.22236 -1.26044 -1.52996 0 1 0
37 3 1 -0.960594 2.05219 -1.54252 0 0 0
38 3 1 -0.176141 1.73256 -2.04314 0 0 0
39 3 1 -0.108293 -1.57884 -1.73708 0 1 0
40 3 1 0.717672 2.05398 -1.52605 0 0 0
41 3 2 1.42059 -2.0406 -2.09607 0 1 0
42 3 2 2.24757 1.90588 -1.56709 0 0 0
43 3 2 1.77291 2.11608 -0.76552 0 0 0
44 3 2 2.56368 -1.5292 -0.797613 0 1 0
45 3 2 3.02854 -0.965853 -1.48186 0 1 0
46 3 2 3.66258 -1.68805 -1.33579 0 1 0
47 3 2 3.88465 1.6474 -1.25719 0 0 0
48 3 2 4.60755 1.14399 -0.930098 0 0 0
49 4 1 -3.84288 1.69484 -1.4568 0 -1 1
50 4 1 -3.85605 1.90562 1.82041 0 -1 0
51 4 1 -4.53045 1.25208 1.60174 0 -1 0
52 4 1 -4.49441 1.16252 0.648406 0 -1 0
53 4 1 -3.61568 0.946269 0.911396 0 -1 0
54 4 1 -3.88388 0.265184 0.340189 0 -1 0
55 4 1 -3.32236 0.503075 -0.310298 0 -1 0
56 4 1 -3.09416 1.37214 -0.655559 0 -1 0
57 4 2 -2.21329 1.40591 -1.0426 0 -1 0
58 4 2 -1.66481 2.11731 -0.663218 0 -1 0
59 4 2 -0.947623 1.74048 -0.0124258 0 -1 0
60 4 2 -0.196332 -2.02457 0.479573 0 0 0
61 4 2 -0.546184 -2.04198 1.36373 0 0 0
62 4 2 -1.05934 1.43871 1.52869 0 -1 0
63 4 2 -0.161232 1.23051 1.18218 0 -1 0
64 4 2 0.651961 1.74174 1.56249 0 -1 0
65 5 1 -0.947397 0.554377 -1.9357 0 0 0
66 5 1 -0.417089 0.0346406 -1.32263 0 0 0
67 5 1 0.368109 0.573036 -1.50165 0 0 0
68 5 1 0.895168 0.703171 1.87703 0 0 -1
69 5 1 1.63932 0.780071 1.33725 0 0 -1
70 5 1 2.61377 0.93785 1.27788 0 0 -1
71 5 1 2.55138 0.521346 -2.10585 0 0 0
72 5 1 3.40506 0.112676 -1.72208 0 0 0
73 5 2 2.8716 -0.0212717 -0.931721 0 0 0
74 5 2 3.6752 -0.198653 -0.374699 0 0 0
75 5 2 4.32043 0.16208 -0.902271 0 0 0
76 5 2 5.12972 -0.255172 -0.861956 0 0 0
77 5 2 5.84869 0.325775 -0.591035 0 0 0
78 5 2 5.93316 -0.172994 0.201418 0 0 0
79 5 2 5.57523 -0.956281 0.507761 0 0 0
80 5 2 5.1876 -1.48356 1.17075 0 0 0
81 6 1 -2.55559 1.35899 0.712103 0 0 0
82 6 1 -2.41677 -2.15165 1.31258 0 1 0
83 6 1 -2.25018 2.07768 -1.92872 0 0 1
84 6 1 -2.62608 1.30418 2.05447 0 0 0
85 6 1 -1.96602 0.706046 -1.99382 0 0 1
86 6 1 -1.80644 0.677086 1.31154 0 0 0
87 6 1 -1.01448 0.387591 0.957271 0 0 0
88 6 1 -0.272384 0.557506 0.240931 0 0 0
89 6 2 0.57063 1.04114 0.363128 0 0 0
90 6 2 0.619438 0.450656 -0.427443 0 0 0
91 6 2 0.893776 1.38013 -0.557628 0 0 0
92 6 2 1.19724 1.90314 0.16293 0 0 0
93 6 2 1.49051 -1.79445 0.858656 0 1 0
94 6 2 1.84221 -1.00668 1.35661 0 1 0
95 6 2 1.56635 -0.333592 1.9738 0 1 0
96 6 2 2.00564 -1.01593 -1.73555 0 1 1
97 7 1 -5.84243 0.947016 2.01671 0 -1 0
98 7 1 -5.19857 1.69527 -2.04412 0 -1 1
99 7 1 -4.96187 1.10078 -1.32145 0 -1 1
100 7 1 -5.37307 1.95405 -1.00257 0 -1 1
101 7 1 -5.93444 -1.5397 -0.821286 0 0 1
102 7 1 5.84598 -1.02362 -1.26812 -1 0 1
103 7 1 6.11796 -0.504407 -1.98067 -1 0 1
104 7 1 -6.06117 -0.508949 1.31216 0 0 0
105 7 2 -5.59923 -1.29517 1.12247 0 0 0
106 7 2 -5.22016 -1.18752 1.9507 0 0 0
107 7 2 -4.58178 -1.44266 1.2644 0 0 0
108 7 2 -4.10065 -1.39513 -2.11712 0 0 1
109 7 2 -3.4908 -0.667434 -1.78523 0 0 1
110 7 2 -3.61439 -0.211096 -0.980908 0 0 1
111 7 2 -3.82227 0.674627 -1.39709 0 0 1
112 7 2 -3.81519 0.345512 1.95811 0 0 0
113 8 1 4.60383 -0.264255 -1.91394 0 -1 1
114 8 1 5.23022 0.497585 -1.86397 0 -1 1
115 8 1 5.23378 1.35744 1.99176 0 -1 0
116 8 1 4.97436 1.68355 1.13007 0 -1 0
117 8 1 4.03565 1.83587 1.18394 0 -1 0
118 8 1 4.29141 1.53005 0.244732 0 -1 0
119 8 1 4.13583 -1.73417 0.0843415 0 0 0
120 8 1 4.36118 -0.838312 0.390825 0 0 0
121 8 2 4.73304 0.0417372 0.501676 0 0 0
122 8 2 5.25285 -0.158912 1.26933 0 0 0
123 8 2 5.84374 0.634646 1.2875 0 0 0
124 8 2 -5.92364 0.81127 0.548302 1 0 0
125 8 2 -5.9883 1.36667 -0.23476 1 0 0
126 8 2 5.80218 1.59437 -0.888462 0 0 0
127 8 2 5.19938 1.3777 -0.210761 0 0 0
128 8 2 5.54364 -2.11586 0.281115 0 1 0
ITEM: TIMESTEP
1800
ITEM: NUMBER OF ATOMS
128
ITEM: BOX BOUNDS pp pp pp
-6.2010977310080699e+00 6.2010977310080699e+00
-2.1200334123104558e+00 2.1200334123104558e+00
-2.1200334123104558e+00 2.1200334123104558e+00
ITEM: ATOMS id mol type x y z ix iy iz
1 1 1 -4.91385 -0.913825 -0.825949 0 0 0
2 1 1 -5.50985 -0.230443 -1.11281 0 0 0
3 1 1 -5.47501 -0.333305 -0.122908 0 0 0
4 1 1 -5.41437 -1.23891 0.162647 0 0 0
5 1 1 -4.81008 -0.67945 0.655295 0 0 0
6 1 1 -4.72939 -0.18746 1.53656 0 0 0
7 1 1 -3.8497 -0.409925 1.11641 0 0 0
8 1 1 -2.99872 -0.0521864 0.845676 0 0 0
9 1 2 -2.71566 -0.179709 -0.0493223 0 0 0
10 1 2 -1.90187 0.27362 -0.390794 0 0 0
11 1 2 -0.944914 0.314842 -0.449264 0 0 0
12 1 2 -0.759218 -0.475754 -0.871177 0 0 0
13 1 2 0.024185 -1.00869 -0.757301 0 0 0
14 1 2 0.955499 -1.06574 -0.826904 0 0 0
15 1 2 0.834927 -0.155725 -1.1818 0 0 0
16 1 2 0.402951 -0.831375 -1.73673 0 0 0
17 2 1 -1.34539 -0.970908 0.56879 0 0 -1
18 2 1 -2.21967 -1.32703 0.861061 0 0 -1
19 2 1 -2.33155 -0.764858 1.60246 0 0 -1
20 2 1 -1.43088 -1.08481 1.56796 0 0 -1
21 2 1 -0.766602 -0.403774 1.48814 0 0 -1
22 2 1 0.164374 -0.244794 1.54983 0 0 -1
23 2 1 0.309273 -1.03394 0.943787 0 0 -1
24 2 1 0.974685 -0.471222 0.550481 0 0 -1
25 2 2 1.80253 -0.259939 0.120995 0 0 -1
26 2 2 2.02837 -0.0384438 1.07039 0 0 -1
27 2 2 2.35768 0.652005 0.531423 0 0 -1
28 2 2 2.4509 0.866302 -0.401949 0 0 -1
29 2 2 3.10904 1.51321 -0.242275 0 0 -1
30 2 2 3.04531 1.93576 0.576978 0 0 -1
31 2 2 2.94254 -1.47923 1.10289 0 1 -1
32 2 2 3.03816 -0.692746 1.6357 0 1 -1
33 3 1 -2.74773 -1.34877 -0.311337 0 1 0
34 3 1 -2.44539 -0.67093 -0.977363 0 1 0
35 3 1 -1.74943 -0.311783 -1.53114 0 1 0
36 3 1 -1.52809 -1.29039 -1.51918 0 1 0
37 3 1 -1.05824 2.11543 -1.57675 0 0 0
38 3 1 -0.113872 -2.00897 -1.28194 0 1 0
39 3 1 0.558427 -1.83119 -2.03507 0 1 0
40 3 1 1.33726 -1.97716 -1.44472 0 1 0
41 3 2 1.86005 1.82193 2.10886 0 0 -1
42 3 2 2.3708 -1.93662 -1.47263 0 1 0
43 3 2 2.24421 -1.83993 -0.499936 0 1 0
44 3 2 2.81484 -1.22525 -0.00285461 0 1 0
45 3 2 3.06932 -1.22045 -0.915179 0 1 0
46 3 2 3.78418 -1.79781 -1.13932 0 1 0
47 3 2 4.13946 1.59026 -0.851964 0 0 0
48 3 2 4.03232 1.20573 -1.73526 0 0 0
49 4 1 -3.7218 -1.93547 -1.3715 0 0 1
50 4 1 -3.86836 1.8462 2.05119 0 -1 0
51 4 1 -4.11016 0.921073 1.96022 0 -1 0
52 4 1 -4.46028 0.916307 1.02307 0 -1 0
53 4 1 -3.66333 0.727093 0.531629 0 -1 0
54 4 1 -3.77829 0.217058 -0.328588 0 -1 0
55 4 1 -3.24346 0.927053 -0.728625 0 -1 0
56 4 1 -2.56323 1.53467 -0.29025 0 -1 0
57 4 2 -1.6756 1.24163 -0.0952009 0 -1 0
58 4 2 -1.73884 2.09215 -0.709237 0 -1 0
59 4 2 -1.42118 -2.08497 0.299613 0 0 0
60 4 2 -0.795698 -1.57247 -0.238211 0 0 0
61 4 2 -0.542915 -1.69404 0.701596 0 0 0
62 4 2 -0.761879 1.68313 1.16874 0 -1 0
63 4 2 0.158086 1.35222 0.973937 0 -1 0
64 4 2 0.726977 2.08605 1.21656 0 -1 0
65 5 1 -0.840891 0.809759 2.08228 0 0 -1
66 5 1 -0.37999 0.119941 -1.69091 0 0 0
67 5 1 0.305696 0.698646 -1.36738 0 0 0
68 5 1 0.932764 0.40512 -2.07548 0 0 0
69 5 1 1.41375 0.875487 1.43035 0 0 -1
70 5 1 2.34341 1.05654 1.49164 0 0 -1
71 5 1 2.18221 0.532442 -1.99045 0 0 0
72 5 1 2.94573 0.151232 -1.5043 0 0 0
73 5 2 2.96426 -0.0936694 -0.598643 0 0 0
74 5 2 3.59963 -0.495448 -0.034946 0 0 0
75 5 2 4.4387 -0.650524 -0.620311 0 0 0
76 5 2 4.82689 0.297285 -0.702193 0 0 0
77 5 2 5.82465 0.359562 -0.71119 0 0 0
78 5 2 5.84121 -0.220428 0.116637 0 0 0
79 5 2 5.61101 -1.15492 0.129877 0 0 0
80 5 2 5.40021 -1.19336 1.12489 0 0 0
81 6 1 -2.59592 0.799164 0.487901 0 0 0
82 6 1 -2.51987 1.71459 0.878874 0 0 0
83 6 1 -2.36563 1.6537 1.88138 0 0 0
84 6 1 -2.7929 1.1287 -1.73932 0 0 1
85 6 1 -2.22028 0.579604 1.94682 0 0 0
86 6 1 -1.75542 0.95116 1.13197 0 0 0
87 6 1 -0.924178 0.840041 0.606633 0 0 0
88 6 1 -0.167128 1.05974 0.0077312 0 0 0
89 6 2 0.179398 0.217332 0.433084 0 0 0
90 6 2 0.851258 0.694026 -0.0593163 0 0 0
91 6 2 0.920239 1.42551 -0.789017 0 0 0
92 6 2 1.39225 1.53984 0.0123629 0 0 0
93 6 2 1.42412 -1.8167 0.449785 0 1 0
94 6 2 1.37333 -1.15351 1.09596 0 1 0
95 6 2 1.26331 -0.54338 1.85184 0 1 0
96 6 2 1.66277 -0.909936 -1.60888 0 1 1
97 7 1 -5.35768 0.488645 -1.99379 0 -1 1
98 7 1 -5.22415 1.29547 -1.51866 0 -1 1
99 7 1 -4.82388 1.69442 -0.673471 0 -1 1
100 7 1 -5.50229 -1.94027 -1.03464 0 0 1
101 7 1 -6.13576 -1.85069 -1.69095 0 0 1
102 7 1 5.39754 -1.50279 -1.79464 -1 0 1
103 7 1 5.89316 -0.844107 -1.29154 -1 0 1
104 7 1 6.11144 -0.477211 2.05492 -1 0 0
105 7 2 -5.94267 -1.25862 1.59709 0 0 0
106 7 2 -5.13365 -1.7214 1.81468 0 0 0
107 7 2 -4.30524 -1.62476 1.33636 0 0 0
108 7 2 -3.4351 -1.4038 1.77052 0 0 0
109 7 2 -2.93229 -1.24963 -1.65153 0 0 1
110 7 2 -3.54945 -0.515591 -1.21287 0 0 1
111 7 2 -3.9997 -0.405041 -2.01689 0 0 1
112 7 2 -3.21304 0.0557539 -2.06046 0 0 1
113 8 1 5.17807 -0.282361 -1.95902 0 -1 1
114 8 1 5.63565 0.563322 -1.89244 0 -1 1
115 8 1 5.85233 1.4478 -1.60126 0 -1 1
116 8 1 5.33803 1.72743 1.95808 0 -1 0
117 8 1 4.89903 1.46581 1.26422 0 -1 0
118 8 1 4.12863 1.64043 0.764738 0 -1 0
119 8 1 3.98445 -1.90857 -0.00857711 0 0 0
120 8 1 4.43439 -1.16492 0.401283 0 0 0
121 8 2 4.45796 -0.260125 0.697714 0 0 0
122 8 2 5.01332 0.488994 0.923535 0 0 0
123 8 2 5.96303 0.465724 1.00831 0 0 0
124 8 2 -5.78047 0.629643 0.35989 1 0 0
125 8 2 -5.88326 1.33534 -0.261685 1 0 0
126 8 2 5.59674 1.62638 -0.53171 0 0 0
127 8 2 5.51176 1.07308 0.214732 0 0 0
128 8 2 5.65888 1.9407 0.622836 0 0 0
ITEM: TIMESTEP
2000
ITEM: NUMBER OF ATOMS
128
ITEM: BOX BOUNDS pp pp pp
-6.2010977310080699e+00 6.2010977310080699e+00
-2.1200334123104558e+00 2.1200334123104558e+00
-2.1200334123104558e+00 2.1200334123104558e+00
ITEM: ATOMS id mol type x y z ix iy iz
1 1 1 -5.04353 -0.84979 -1.1734 0 0 0
2 1 1 -5.67659 -0.241536 -0.821537 0 0 0
3 1 1 -5.4184 -0.606743 0.044875 0 0 0
4 1 1 -5.59734 -1.41285 0.568882 0 0 0
5 1 1 -4.70841 -1.08313 0.772552 0 0 0
6 1 1 -4.96923 -0.22811 1.12716 0 0 0
7 1 1 -4.00849 -0.255947 1.28976 0 0 0
8 1 1 -3.26264 -0.0980678 0.769069 0 0 0
9 1 2 -2.61801 0.164821 0.0663831 0 0 0
10 1 2 -1.93451 0.377339 -0.597509 0 0 0
11 1 2 -1.19775 0.327196 -1.25929 0 0 0
12 1 2 -0.565209 -0.187608 -0.803713 0 0 0
13 1 2 0.0280825 -0.857146 -0.556303 0 0 0
14 1 2 0.92372 -1.15667 -0.829494 0 0 0
15 1 2 0.810698 -0.279062 -1.20674 0 0 0
16 1 2 0.289695 -0.802869 -1.84403 0 0 0
17 2 1 -1.80506 -0.469423 0.357523 0 0 -1
18 2 1 -2.60949 -1.13187 0.424114 0 0 -1
19 2 1 -2.52028 -1.24592 1.36076 0 0 -1
20 2 1 -1.59741 -1.43326 1.4088 0 0 -1
21 2 1 -1.2037 -0.55784 1.45297 0 0 -1
22 2 1 -0.274445 -0.636667 1.34801 0 0 -1
23 2 1 0.66281 -0.828488 1.43637 0 0 -1
24 2 1 0.806255 -0.00526279 0.93839 0 0 -1
25 2 2 0.723654 -0.552706 0.205248 0 0 -1
26 2 2 1.61414 -0.502749 -0.176433 0 0 -1
27 2 2 1.63334 0.360638 -0.581947 0 0 -1
28 2 2 2.33912 1.17022 -0.368924 0 0 -1
29 2 2 3.20288 1.45244 -0.0873934 0 0 -1
30 2 2 3.2498 1.28724 0.902084 0 0 -1
31 2 2 3.30611 -2.11071 1.30065 0 1 -1
32 2 2 3.07189 -1.64582 2.12968 0 1 -1
33 3 1 -2.16014 -1.28737 -0.926965 0 1 0
34 3 1 -2.17901 -0.390127 -1.26831 0 1 0
35 3 1 -1.46686 -0.88184 -1.67092 0 1 0
36 3 1 -1.68907 -1.76354 -1.81406 0 1 0
37 3 1 -0.760673 -1.69047 -1.82288 0 1 0
38 3 1 -0.206701 1.90551 -1.38578 0 0 0
39 3 1 0.59753 -2.09223 -1.86248 0 1 0
40 3 1 1.40332 1.71324 -2.00288 0 0 0
41 3 2 1.89732 2.01752 -1.31679 0 0 0
42 3 2 2.44855 -1.40323 -1.28134 0 1 0
43 3 2 2.74577 -1.56959 -0.378668 0 1 0
44 3 2 3.29632 -0.876659 -0.141881 0 1 0
45 3 2 3.9096 -1.47217 -0.584452 0 1 0
46 3 2 3.9391 -1.9536 -1.39352 0 1 0
47 3 2 4.05002 1.32861 -1.36704 0 0 0
48 3 2 3.13195 1.42013 -1.16844 0 0 0
49 4 1 -4.11835 -2.03714 -1.09929 0 0 1
50 4 1 -4.1171 1.57857 -1.85012 0 -1 1
51 4 1 -4.08907 0.784805 1.75967 0 -1 0
52 4 1 -3.92283 1.08012 0.875928 0 -1 0
53 4 1 -4.51147 1.02014 0.176578 0 -1 0
54 4 1 -3.9637 0.655334 -0.60049 0 -1 0
55 4 1 -3.48069 1.36895 -0.927642 0 -1 0
56 4 1 -2.51457 1.32762 -0.864575 0 -1 0
57 4 2 -1.99759 1.43487 -0.10946 0 -1 0
58 4 2 -1.65661 1.85301 -0.82986 0 -1 0
59 4 2 -1.56774 -1.82798 -0.116327 0 0 0
60 4 2 -1.12953 -0.982176 -0.174603 0 0 0
61 4 2 -0.40543 -1.15111 0.367264 0 0 0
62 4 2 -0.145183 -1.66157 1.15169 0 0 0
63 4 2 0.271226 1.70334 0.985085 0 -1 0
64 4 2 0.968533 -1.83711 1.17292 0 0 0
65 5 1 -1.04677 1.50978 -1.77316 0 0 0
66 5 1 -0.466372 0.779814 -2.0466 0 0 0
67 5 1 0.112 0.795389 -1.27234 0 0 0
68 5 1 0.559645 0.876729 2.1031 0 0 -1
69 5 1 1.37996 0.768561 1.52892 0 0 -1
70 5 1 2.36636 0.740147 1.62272 0 0 -1
71 5 1 1.90947 0.647383 -1.73336 0 0 0
72 5 1 2.58752 0.20208 -1.25837 0 0 0
73 5 2 3.41562 -0.0557471 -0.775097 0 0 0
74 5 2 3.66711 0.270564 0.167947 0 0 0
75 5 2 4.45235 -0.271217 -0.207652 0 0 0
76 5 2 4.51784 0.424045 -0.944193 0 0 0
77 5 2 5.33293 0.418902 -0.339849 0 0 0
78 5 2 5.7448 -0.498181 -0.387588 0 0 0
79 5 2 5.39239 -1.26002 -0.0153537 0 0 0
80 5 2 5.81131 -0.993798 0.853817 0 0 0
81 6 1 -3.01148 1.06369 0.529062 0 0 0
82 6 1 -2.76394 1.93639 0.729016 0 0 0
83 6 1 -2.7327 1.4648 1.61221 0 0 0
84 6 1 -2.31364 0.909309 -1.98621 0 0 1
85 6 1 -1.39727 0.573679 1.76721 0 0 0
86 6 1 -1.72335 1.44939 1.33539 0 0 0
87 6 1 -0.978961 0.961716 0.791532 0 0 0
88 6 1 -0.812747 1.49323 0.0150581 0 0 0
89 6 2 -0.151942 0.766442 0.0547053 0 0 0
90 6 2 0.62801 1.12508 -0.322442 0 0 0
91 6 2 1.04292 1.88687 -0.738617 0 0 0
92 6 2 1.23886 1.91429 0.202583 0 0 0
93 6 2 1.89874 -1.64569 0.395233 0 1 0
94 6 2 2.45571 -1.22038 0.938458 0 1 0
95 6 2 1.79631 -0.943621 1.63477 0 1 0
96 6 2 2.11733 -0.607513 -1.78249 0 1 1
97 7 1 -4.65582 0.287854 -1.3033 0 -1 1
98 7 1 -5.04115 0.869199 -0.709326 0 -1 1
99 7 1 -5.10683 1.84711 -0.580896 0 -1 1
100 7 1 -5.90917 2.09417 -1.05097 0 -1 1
101 7 1 6.12971 -1.94776 -1.93864 -1 0 1
102 7 1 5.53656 -1.20481 2.10612 -1 0 0
103 7 1 5.68635 -1.20123 -1.09587 -1 0 1
104 7 1 -5.9903 -0.912488 -1.60783 0 0 1
105 7 2 -5.29113 -1.08061 1.90791 0 0 0
106 7 2 -5.16424 -1.87231 1.43311 0 0 0
107 7 2 -4.35092 -1.78955 1.85939 0 0 0
108 7 2 -3.65015 -1.41846 1.27125 0 0 0
109 7 2 -3.02215 -1.89054 1.96992 0 0 0
110 7 2 -3.19542 -1.56053 -1.43314 0 0 1
111 7 2 -3.78768 -0.75291 -1.51009 0 0 1
112 7 2 -2.92181 -0.608946 -1.99321 0 0 1
113 8 1 4.82622 0.400197 -2.06356 0 -1 1
114 8 1 5.63843 0.0213183 -1.81505 0 -1 1
115 8 1 -6.03935 0.675209 -1.79601 1 -1 1
116 8 1 5.58377 1.131 1.95664 0 -1 0
117 8 1 4.69688 1.72041 2.00747 0 -1 0
118 8 1 4.41712 1.67468 1.07226 0 -1 0
119 8 1 4.60916 -2.10339 0.259114 0 0 0
120 8 1 4.47636 -1.23819 0.602655 0 0 0
121 8 2 4.49163 -0.906132 1.48499 0 0 0
122 8 2 5.19097 -0.19924 1.29354 0 0 0
123 8 2 6.00135 0.315935 1.06893 0 0 0
124 8 2 -5.6715 0.769915 0.69123 1 0 0
125 8 2 -5.9423 1.50361 0.171596 1 0 0
126 8 2 5.63528 1.73211 -0.410378 0 0 0
127 8 2 5.49198 1.69612 0.551677 0 0 0
128 8 2 6.07151 1.95258 1.29498 0 0 0
ITEM: TIMESTEP
2200
ITEM: NUMBER OF ATOMS
128
ITEM: BOX BOUNDS pp pp pp
-6.2010977310080699e+00 6.2010977310080699e+00
-2.1200334123104558e+00 2.1200334123104558e+00
-2.1200334123104558e+00 2.1200334123104558e+00
ITEM: ATOMS id mol type x y z ix iy iz
1 1 1 -4.81645 -1.16458 -0.816371 0 0 0
2 1 1 -5.2396 -0.286654 -0.790175 0 0 0
3 1 1 -5.65096 -0.799743 -0.159757 0 0 0
4 1 1 -5.18807 -1.52806 0.23957 0 0 0
5 1 1 -4.25889 -1.16227 0.1722 0 0 0
6 1 1 -4.57173 -0.460185 0.714034 0 0 0
7 1 1 -3.81591 0.12282 0.752539 0 0 0
8 1 1 -3.4216 -0.237775 -0.0497718 0 0 0
9 1 2 -2.78263 0.171968 -0.706491 0 0 0
10 1 2 -1.84055 0.0462591 -0.634074 0 0 0
11 1 2 -1.68593 0.339828 -1.51674 0 0 0
12 1 2 -0.885154 -0.0142003 -1.18271 0 0 0
13 1 2 0.023979 0.0213472 -0.942171 0 0 0
14 1 2 0.596771 -0.704651 -0.852381 0 0 0
15 1 2 0.659338 -0.383169 -1.74021 0 0 0
16 1 2 -0.0820412 -0.986028 -1.81551 0 0 0
17 2 1 -2.31447 -0.587958 0.445781 0 0 -1
18 2 1 -2.62587 -1.41793 0.17721 0 0 -1
19 2 1 -2.70175 -1.16989 1.18231 0 0 -1
20 2 1 -1.73785 -1.12371 1.15942 0 0 -1
21 2 1 -0.946719 -0.625571 1.38706 0 0 -1
22 2 1 -0.334164 0.0633109 1.2023 0 0 -1
23 2 1 0.394997 -0.534315 1.16826 0 0 -1
24 2 1 0.589248 0.143784 0.519379 0 0 -1
25 2 2 0.984949 -0.72374 0.346197 0 0 -1
26 2 2 1.60597 -0.183078 -0.161392 0 0 -1
27 2 2 1.58147 0.742137 -0.283993 0 0 -1
28 2 2 1.95772 1.28287 0.446665 0 0 -1
29 2 2 2.65748 1.19113 1.00186 0 0 -1
30 2 2 3.30318 0.627696 1.27651 0 0 -1
31 2 2 3.5656 1.47233 1.66037 0 0 -1
32 2 2 2.70966 1.94967 1.61542 0 0 -1
33 3 1 -2.09718 -1.3026 -0.907895 0 1 0
34 3 1 -2.28962 -0.509437 -1.45066 0 1 0
35 3 1 -1.3944 -0.921813 -1.63008 0 1 0
36 3 1 -1.48834 -1.76556 -2.14085 0 1 0
37 3 1 -0.585213 -2.00371 -1.95072 0 1 0
38 3 1 0.298942 2.07178 -1.6991 0 0 0
39 3 1 1.14622 -1.7045 -1.79986 0 1 0
40 3 1 2.02602 2.05707 -1.76498 0 0 0
41 3 2 2.31579 -1.3299 -1.52085 0 1 0
42 3 2 3.12592 -1.00089 -1.04669 0 1 0
43 3 2 3.29834 -1.72329 -0.482166 0 1 0
44 3 2 4.07217 -1.21865 -0.0445212 0 1 0
45 3 2 4.48518 -1.94973 -0.586484 0 1 0
46 3 2 4.52433 1.8783 -1.44799 0 0 0
47 3 2 3.77659 1.38504 -1.63188 0 0 0
48 3 2 3.11258 1.6404 -0.974162 0 0 0
49 4 1 -4.39972 2.06782 -1.00202 0 -1 1
50 4 1 -4.61271 1.64897 -1.79915 0 -1 1
51 4 1 -4.15078 0.886678 1.96611 0 -1 0
52 4 1 -4.32632 1.61959 1.40182 0 -1 0
53 4 1 -4.76909 1.02253 0.846975 0 -1 0
54 4 1 -4.17407 0.793525 0.0186736 0 -1 0
55 4 1 -3.72501 1.3632 -0.551141 0 -1 0
56 4 1 -2.97043 1.16001 -1.12225 0 -1 0
57 4 2 -2.24342 1.64549 -0.670455 0 -1 0
58 4 2 -1.3875 1.97295 -1.08826 0 -1 0
59 4 2 -1.2216 -1.70374 -0.286642 0 0 0
60 4 2 -0.659853 -0.978216 -0.606661 0 0 0
61 4 2 -0.487857 -1.08467 0.286012 0 0 0
62 4 2 -0.222416 -1.38884 1.14818 0 0 0
63 4 2 0.496063 -1.99378 1.24602 0 0 0
64 4 2 1.40384 -1.68866 1.33571 0 0 0
65 5 1 -1.01308 1.1812 -1.62823 0 0 0
66 5 1 -0.36923 1.34268 1.84276 0 0 -1
67 5 1 0.052058 0.532468 -2.10529 0 0 0
68 5 1 0.906399 1.04805 -2.02439 0 0 0
69 5 1 1.18226 0.329244 1.60802 0 0 -1
70 5 1 2.14219 0.395059 1.54708 0 0 -1
71 5 1 2.34406 0.762907 -1.86132 0 0 0
72 5 1 2.93236 0.0901511 -1.44072 0 0 0
73 5 2 3.54998 0.592819 -0.883842 0 0 0
74 5 2 3.62809 1.08253 -0.0928738 0 0 0
75 5 2 4.1895 0.351711 -0.123435 0 0 0
76 5 2 4.80432 0.663722 -0.714669 0 0 0
77 5 2 5.35328 0.414817 0.0261695 0 0 0
78 5 2 5.83971 -0.150213 -0.528369 0 0 0
79 5 2 5.21736 -0.766645 0.0100471 0 0 0
80 5 2 5.97782 -1.11778 0.431531 0 0 0
81 6 1 -3.08582 1.5663 0.451082 0 0 0
82 6 1 -2.48792 1.38763 1.21623 0 0 0
83 6 1 -2.94433 0.559402 1.44956 0 0 0
84 6 1 -2.44722 0.942928 -2.13005 0 0 1
85 6 1 -1.76759 0.760955 1.42916 0 0 0
86 6 1 -1.32751 1.54754 1.55632 0 0 0
87 6 1 -0.77633 1.12509 0.903692 0 0 0
88 6 1 -0.624305 1.59049 0.0675621 0 0 0
89 6 2 0.197963 1.37432 0.425317 0 0 0
90 6 2 0.0891468 1.20648 -0.503424 0 0 0
91 6 2 0.660646 2.00352 -0.246345 0 0 0
92 6 2 1.42841 -1.73402 0.105038 0 1 0
93 6 2 2.22576 -1.68895 0.633045 0 1 0
94 6 2 2.81678 -0.980255 0.716151 0 1 0
95 6 2 2.84153 -1.07324 1.6474 0 1 0
96 6 2 2.01628 -0.690168 1.37584 0 1 0
97 7 1 -4.48116 0.453291 -1.1276 0 -1 1
98 7 1 -5.43843 0.723549 -1.29056 0 -1 1
99 7 1 -5.5071 1.45618 -0.637807 0 -1 1
100 7 1 5.9945 1.60393 -0.94089 -1 -1 1
101 7 1 6.11432 -1.95315 -1.61114 -1 0 1
102 7 1 5.82519 -1.44794 1.84696 -1 0 0
103 7 1 5.3567 -1.23675 -1.57876 -1 0 1
104 7 1 6.17635 -1.12742 -1.04603 -1 0 1
105 7 2 -5.67882 -1.05427 -1.81189 0 0 1
106 7 2 -5.31319 -1.85449 -2.06496 0 0 1
107 7 2 -4.50515 -1.46619 1.87497 0 0 0
108 7 2 -3.88404 -1.40285 1.06588 0 0 0
109 7 2 -3.34378 -1.95193 1.65106 0 0 0
110 7 2 -3.51184 -2.09489 -1.64765 0 0 1
111 7 2 -3.58347 -1.23753 -1.12167 0 0 1
112 7 2 -3.53931 -0.94781 -2.08096 0 0 1
113 8 1 4.40974 0.297685 -1.84428 0 -1 1
114 8 1 5.2185 -0.177718 -1.51191 0 -1 1
115 8 1 5.97854 -0.202345 -2.05624 0 -1 1
116 8 1 5.59568 0.66908 -1.91281 0 -1 1
117 8 1 5.30671 1.64298 -2.03695 0 -1 1
118 8 1 4.73347 1.4474 1.31516 0 -1 0
119 8 1 4.0232 -2.09901 0.979472 0 0 0
120 8 1 4.35013 -1.21703 1.34914 0 0 0
121 8 2 4.47135 -0.736468 -2.1295 0 0 1
122 8 2 5.06929 -0.382885 1.46445 0 0 0
123 8 2 5.69857 -0.180642 0.799087 0 0 0
124 8 2 -5.8746 0.299937 0.901718 1 0 0
125 8 2 -5.94723 1.04824 0.339631 1 0 0
126 8 2 5.71279 1.64548 0.0985116 0 0 0
127 8 2 5.63821 -2.01597 0.844228 0 1 0
128 8 2 5.98242 1.58168 1.46249 0 0 0
ITEM: TIMESTEP
2400
ITEM: NUMBER OF ATOMS
128
ITEM: BOX BOUNDS pp pp pp
-6.2010977310080699e+00 6.2010977310080699e+00
-2.1200334123104558e+00 2.1200334123104558e+00
-2.1200334123104558e+00 2.1200334123104558e+00
ITEM: ATOMS id mol type x y z ix iy iz
1 1 1 -4.97302 -1.31117 -1.24507 0 0 0
2 1 1 -5.18452 -0.425729 -0.951239 0 0 0
3 1 1 -5.2061 -0.65296 -0.0421735 0 0 0
4 1 1 -4.75815 -1.43607 0.348956 0 0 0
5 1 1 -4.16706 -1.05352 -0.346003 0 0 0
6 1 1 -4.23996 -0.559323 0.472405 0 0 0
7 1 1 -3.46456 -0.0937475 0.134327 0 0 0
8 1 1 -3.54144 -0.215703 -0.760797 0 0 0
9 1 2 -2.72138 -0.356751 -1.23559 0 0 0
10 1 2 -2.01969 0.0810655 -0.746827 0 0 0
11 1 2 -1.46854 0.472596 -1.44866 0 0 0
12 1 2 -0.560033 0.352499 -1.20212 0 0 0
13 1 2 0.161946 0.824704 -0.835281 0 0 0
14 1 2 0.61669 0.00475288 -1.13093 0 0 0
15 1 2 0.914126 -0.877585 -1.49303 0 0 0
16 1 2 0.0824679 -0.490283 -1.84939 0 0 0
17 2 1 -2.19998 -0.382543 0.255204 0 0 -1
18 2 1 -2.51785 -1.26232 0.534497 0 0 -1
19 2 1 -2.92874 -0.774288 1.32432 0 0 -1
20 2 1 -1.95113 -0.43338 1.30308 0 0 -1
21 2 1 -1.11664 -0.159407 0.860391 0 0 -1
22 2 1 -0.335224 0.37725 0.775845 0 0 -1
23 2 1 0.248886 -0.340595 1.10625 0 0 -1
24 2 1 0.835256 -0.288091 0.342954 0 0 -1
25 2 2 1.70927 -0.575045 0.0390079 0 0 -1
26 2 2 1.86042 0.148847 -0.550397 0 0 -1
27 2 2 1.73983 0.929795 0.143205 0 0 -1
28 2 2 2.12377 1.06949 0.985462 0 0 -1
29 2 2 2.5864 0.196691 0.836387 0 0 -1
30 2 2 3.36275 0.763204 1.25689 0 0 -1
31 2 2 3.04803 1.63828 1.18557 0 0 -1
32 2 2 2.90999 -1.77878 1.68955 0 1 -1
33 3 1 -1.66546 -1.16382 -0.806982 0 1 0
34 3 1 -2.05217 -1.31164 -1.69486 0 1 0
35 3 1 -1.22915 -0.92285 -1.91338 0 1 0
36 3 1 -1.24969 -1.83889 2.02644 0 1 -1
37 3 1 -0.225545 -1.77657 -2.09394 0 1 0
38 3 1 0.52806 -1.87143 -1.53194 0 1 0
39 3 1 1.51652 -1.9171 -1.44361 0 1 0
40 3 1 2.32538 -1.32275 -1.35421 0 1 0
41 3 2 3.17395 -0.974142 -1.45927 0 1 0
42 3 2 3.90088 -0.563661 -0.967363 0 1 0
43 3 2 3.72872 -1.41634 -0.550966 0 1 0
44 3 2 4.59875 -1.47888 -0.109832 0 1 0
45 3 2 5.21238 2.0745 -0.354137 0 0 0
46 3 2 4.53187 1.7582 -1.0226 0 0 0
47 3 2 3.57967 1.82912 -1.26938 0 0 0
48 3 2 2.68521 1.64919 -1.32999 0 0 0
49 4 1 -5.26022 1.51115 -0.808101 0 -1 1
50 4 1 -4.81953 1.76126 -1.67154 0 -1 1
51 4 1 -4.29764 1.16638 2.03901 0 -1 0
52 4 1 -4.74409 1.46826 1.2073 0 -1 0
53 4 1 -4.53819 0.520777 1.18142 0 -1 0
54 4 1 -4.85805 0.821148 0.376258 0 -1 0
55 4 1 -3.9934 0.827118 -0.122512 0 -1 0
56 4 1 -3.0364 0.786322 -0.588432 0 -1 0
57 4 2 -2.41845 1.42809 -0.940225 0 -1 0
58 4 2 -1.70611 1.94372 -0.526756 0 -1 0
59 4 2 -1.02787 -1.89154 -1.09814 0 0 0
60 4 2 -0.497424 -1.47255 -0.449346 0 0 0
61 4 2 0.220248 -1.20735 0.193542 0 0 0
62 4 2 0.117541 -2.00616 0.814833 0 0 0
63 4 2 0.783435 -1.67755 1.36905 0 0 0
64 4 2 1.34649 1.76632 1.42791 0 -1 0
65 5 1 -0.189266 1.40601 -1.74898 0 0 0
66 5 1 0.260707 1.36761 1.67955 0 0 -1
67 5 1 0.0765066 0.466485 1.81032 0 0 -1
68 5 1 0.958453 0.662031 -2.04832 0 0 0
69 5 1 1.65912 0.302125 1.68463 0 0 -1
70 5 1 1.69669 -0.220696 -1.76021 0 0 0
71 5 1 2.34816 0.563444 -1.76463 0 0 0
72 5 1 3.27916 0.548607 -1.60939 0 0 0
73 5 2 2.98823 0.347825 -0.723851 0 0 0
74 5 2 2.99672 1.15281 -0.30913 0 0 0
75 5 2 3.76914 0.969594 0.284411 0 0 0
76 5 2 4.43056 0.905249 -0.437276 0 0 0
77 5 2 5.08353 0.586353 0.289779 0 0 0
78 5 2 5.69994 0.0996782 -0.232312 0 0 0
79 5 2 5.0491 -0.508626 0.104257 0 0 0
80 5 2 5.57325 -1.22742 0.474985 0 0 0
81 6 1 -3.46065 1.7659 0.354709 0 0 0
82 6 1 -3.08049 0.970019 0.351816 0 0 0
83 6 1 -3.45047 0.89304 1.21552 0 0 0
84 6 1 -2.73863 0.521988 1.7006 0 0 0
85 6 1 -1.78155 0.545761 1.71945 0 0 0
86 6 1 -2.0045 1.50409 1.69716 0 0 0
87 6 1 -1.87017 1.83778 0.821261 0 0 0
88 6 1 -1.08131 1.846 0.303296 0 0 0
89 6 2 -0.25699 1.40433 -0.0415172 0 0 0
90 6 2 0.388962 -2.1383 -0.324501 0 1 0
91 6 2 1.27591 -1.92084 -0.233223 0 1 0
92 6 2 2.155 -1.9955 -0.130441 0 1 0
93 6 2 2.80504 -1.15967 -0.0460781 0 1 0
94 6 2 3.51069 -1.21029 0.577471 0 1 0
95 6 2 3.04114 -0.623943 1.19365 0 1 0
96 6 2 2.11748 -0.940529 1.06382 0 1 0
97 7 1 -4.44679 0.701309 -1.07001 0 -1 1
98 7 1 -5.2484 0.674594 -1.65806 0 -1 1
99 7 1 -6.04308 0.841586 -1.04216 0 -1 1
100 7 1 5.72649 1.49692 -1.24539 -1 -1 1
101 7 1 -5.89759 1.62405 -1.69258 0 -1 1
102 7 1 5.86082 -2.01004 -1.99614 -1 0 1
103 7 1 5.20273 -1.74362 -1.37092 -1 0 1
104 7 1 5.63783 -0.956995 -0.995846 -1 0 1
105 7 2 -6.03599 -1.20842 -1.57745 0 0 1
106 7 2 -5.42139 -1.09517 1.9643 0 0 0
107 7 2 -4.63746 -1.36614 1.37115 0 0 0
108 7 2 -3.87507 -1.88605 1.56612 0 0 0
109 7 2 -3.39978 1.75798 2.04721 0 -1 0
110 7 2 -3.54486 2.05818 -1.26199 0 -1 1
111 7 2 -3.60999 -1.34725 -1.67959 0 0 1
112 7 2 -3.88292 -0.447059 -1.72939 0 0 1
113 8 1 4.43647 0.460605 -1.55429 0 -1 1
114 8 1 4.83647 -0.0276022 -0.83805 0 -1 1
115 8 1 5.42377 -0.142152 -1.68745 0 -1 1
116 8 1 5.61139 0.681317 1.99918 0 -1 0
117 8 1 4.97409 1.4072 -2.07141 0 -1 1
118 8 1 4.01261 1.62955 1.66019 0 -1 0
119 8 1 4.00437 -2.01912 0.868412 0 0 0
120 8 1 3.91255 -1.46771 1.67001 0 0 0
121 8 2 4.32748 -0.832896 -2.0204 0 0 1
122 8 2 4.78233 -0.219298 1.62062 0 0 0
123 8 2 5.76494 -0.265762 1.5236 0 0 0
124 8 2 6.11759 -0.368027 0.638144 0 0 0
125 8 2 -6.04012 0.51114 0.548945 1 0 0
126 8 2 5.91879 1.38118 0.453826 0 0 0
127 8 2 5.54358 1.81717 1.19559 0 0 0
128 8 2 -5.93141 1.74938 1.44178 1 0 0
ITEM: TIMESTEP
2600
ITEM: NUMBER OF ATOMS
128
ITEM: BOX BOUNDS pp pp pp
-6.2010977310080699e+00 6.2010977310080699e+00
-2.1200334123104558e+00 2.1200334123104558e+00
-2.1200334123104558e+00 2.1200334123104558e+00
ITEM: ATOMS id mol type x y z ix iy iz
1 1 1 -4.76938 -0.74273 -1.32496 0 0 0
2 1 1 -5.29285 -0.451487 -0.569561 0 0 0
3 1 1 -5.4133 -0.835162 0.303614 0 0 0
4 1 1 -5.15923 -1.46083 -0.280429 0 0 0
5 1 1 -4.42361 -0.981093 0.0972428 0 0 0
6 1 1 -3.65918 -0.772795 0.627667 0 0 0
7 1 1 -3.29609 -0.168664 -0.0924479 0 0 0
8 1 1 -3.24396 -0.520715 -1.00571 0 0 0
9 1 2 -2.35021 -0.495495 -1.29421 0 0 0
10 1 2 -2.14639 0.408915 -1.5784 0 0 0
11 1 2 -1.25266 0.640062 -1.31882 0 0 0
12 1 2 -0.315587 0.643047 -1.00399 0 0 0
13 1 2 0.479319 0.36334 -0.537577 0 0 0
14 1 2 0.867082 0.308119 -1.42274 0 0 0
15 1 2 0.1513 -0.319808 -1.28293 0 0 0
16 1 2 0.0909792 -0.499867 1.9959 0 0 -1
17 2 1 -1.63044 -0.831303 0.168402 0 0 -1
18 2 1 -2.33543 -0.79405 0.802544 0 0 -1
19 2 1 -2.00131 -0.833156 1.70736 0 0 -1
20 2 1 -1.24307 -0.250306 1.5266 0 0 -1
21 2 1 -1.44148 0.235244 0.735892 0 0 -1
22 2 1 -0.643035 -0.263599 0.548093 0 0 -1
23 2 1 0.34478 -0.0499671 0.539683 0 0 -1
24 2 1 1.08498 -0.52501 0.92878 0 0 -1
25 2 2 1.57271 -0.76751 0.0881805 0 0 -1
26 2 2 1.6288 0.115123 -0.431753 0 0 -1
27 2 2 1.91369 0.658714 0.391638 0 0 -1
28 2 2 2.14406 1.06156 1.2204 0 0 -1
29 2 2 2.80734 0.440253 1.29062 0 0 -1
30 2 2 3.18764 1.30677 0.949024 0 0 -1
31 2 2 2.90889 -2.06201 0.630108 0 1 -1
32 2 2 2.26765 2.04445 1.27538 0 0 -1
33 3 1 -1.70292 -1.39061 -1.21436 0 1 0
34 3 1 -1.71891 -1.86881 -2.09221 0 1 0
35 3 1 -1.10291 -1.12884 2.10133 0 1 -1
36 3 1 -0.511913 -1.93178 1.9129 0 1 -1
37 3 1 0.300558 -1.56489 -2.0235 0 1 0
38 3 1 0.974333 2.09682 -1.66126 0 0 0
39 3 1 1.73326 -1.68347 -1.20121 0 1 0
40 3 1 2.30603 -0.950086 -1.46244 0 1 0
41 3 2 3.19822 -1.11164 -1.63411 0 1 0
42 3 2 3.73301 -0.616882 -0.888025 0 1 0
43 3 2 4.50746 -1.15149 -0.499052 0 1 0
44 3 2 4.39602 -2.08107 -0.357562 0 1 0
45 3 2 4.61236 1.19949 -0.279497 0 0 0
46 3 2 4.11654 1.49817 -1.08242 0 0 0
47 3 2 3.44834 -1.97688 -0.957562 0 1 0
48 3 2 2.65784 -2.06257 -1.47329 0 1 0
49 4 1 -5.46015 1.66093 -0.589696 0 -1 1
50 4 1 -4.94742 1.43834 -1.3068 0 -1 1
51 4 1 -4.6873 1.21196 2.03538 0 -1 0
52 4 1 -5.02101 1.06745 1.08055 0 -1 0
53 4 1 -4.53483 0.26048 1.11026 0 -1 0
54 4 1 -4.28289 0.348876 0.194491 0 -1 0
55 4 1 -3.92285 0.719827 -0.572574 0 -1 0
56 4 1 -3.34353 1.28052 -1.04875 0 -1 0
57 4 2 -2.71913 1.85326 -0.596691 0 -1 0
58 4 2 -1.8803 1.71373 -0.949577 0 -1 0
59 4 2 -0.996781 1.98961 -0.905444 0 -1 0
60 4 2 -0.798319 -1.30536 -0.525863 0 0 0
61 4 2 -0.526136 -1.61713 0.325074 0 0 0
62 4 2 0.369851 -1.23489 0.338802 0 0 0
63 4 2 1.10187 -1.70183 0.746372 0 0 0
64 4 2 1.24638 1.79507 1.33389 0 -1 0
65 5 1 0.101579 1.33875 -1.7564 0 0 0
66 5 1 -0.405995 1.28062 1.7108 0 0 -1
67 5 1 0.0715382 0.570723 1.29286 0 0 -1
68 5 1 1.05443 0.454712 1.38721 0 0 -1
69 5 1 1.88684 0.354531 1.90223 0 0 -1
70 5 1 1.90904 0.223714 -1.37477 0 0 0
71 5 1 2.14553 1.19046 -1.48427 0 0 0
72 5 1 3.00169 0.92577 -1.25526 0 0 0
73 5 2 3.18584 0.396938 -0.429092 0 0 0
74 5 2 2.54421 1.18026 -0.270906 0 0 0
75 5 2 3.56397 1.30432 -0.165653 0 0 0
76 5 2 3.91559 0.649614 0.417809 0 0 0
77 5 2 4.84785 0.722184 0.702929 0 0 0
78 5 2 5.42927 0.12317 0.225323 0 0 0
79 5 2 5.14074 -0.76598 0.621067 0 0 0
80 5 2 5.47589 -1.60536 0.912982 0 0 0
81 6 1 -4.06571 1.82491 0.465985 0 0 0
82 6 1 -3.15451 1.75238 0.657951 0 0 0
83 6 1 -3.62329 1.15339 1.38086 0 0 0
84 6 1 -3.08617 0.54356 1.91553 0 0 0
85 6 1 -2.73601 1.36016 1.82584 0 0 0
86 6 1 -2.26382 1.94695 1.23523 0 0 0
87 6 1 -1.67236 2.09645 0.487261 0 0 0
88 6 1 -0.8246 1.50787 0.378254 0 0 0
89 6 2 0.0843817 1.39472 0.704248 0 0 0
90 6 2 0.602291 1.8182 0.0510707 0 0 0
91 6 2 1.61925 1.72628 -0.059144 0 0 0
92 6 2 2.00515 -1.67456 -0.213929 0 1 0
93 6 2 2.78308 -1.12395 -0.197321 0 1 0
94 6 2 3.62407 -1.00486 0.171305 0 1 0
95 6 2 3.07171 -0.914205 0.96404 0 1 0
96 6 2 2.2664 -1.32351 0.73503 0 1 0
97 7 1 -4.77555 0.362643 -1.25393 0 -1 1
98 7 1 -5.38441 0.324918 -1.94518 0 -1 1
99 7 1 -5.80044 0.170815 -1.17631 0 -1 1
100 7 1 6.14069 0.999851 -1.03146 -1 -1 1
101 7 1 5.89635 1.53453 -1.75105 -1 -1 1
102 7 1 5.37315 -2.00618 2.03239 -1 0 0
103 7 1 4.94095 -1.64202 -1.48944 -1 0 1
104 7 1 5.81761 -1.26566 -1.32014 -1 0 1
105 7 2 -5.78516 -0.80477 -1.73545 0 0 1
106 7 2 -5.10628 -0.703458 1.76065 0 0 0
107 7 2 -5.01383 -1.65602 2.07685 0 0 0
108 7 2 -4.1015 -1.84764 1.95774 0 0 0
109 7 2 -3.23842 2.10269 -1.90145 0 -1 1
110 7 2 -3.35644 -1.44303 -1.32307 0 0 1
111 7 2 -3.20558 -0.830828 -2.02386 0 0 1
112 7 2 -4.03318 -0.849678 1.84075 0 0 0
113 8 1 4.01957 0.357785 -1.55793 0 -1 1
114 8 1 4.73775 0.348754 -0.968611 0 -1 1
115 8 1 5.32159 0.0391916 -1.62919 0 -1 1
116 8 1 5.45138 0.715575 1.94668 0 -1 0
117 8 1 4.75853 1.16961 -1.81049 0 -1 1
118 8 1 4.01436 1.88406 -2.01463 0 -1 1
119 8 1 4.00523 1.90071 1.25791 0 -1 0
120 8 1 4.38254 -1.54773 1.66202 0 0 0
121 8 2 4.1894 -0.782917 -2.03652 0 0 1
122 8 2 4.8272 -0.36578 1.59472 0 0 0
123 8 2 5.71029 -0.712349 1.84558 0 0 0
124 8 2 -6.02678 -0.426922 1.23189 1 0 0
125 8 2 -5.62 0.24819 0.765032 1 0 0
126 8 2 -5.88872 1.0553 0.365151 1 0 0
127 8 2 6.07337 1.31412 1.18245 0 0 0
128 8 2 -5.79608 2.05184 0.969058 1 0 0
ITEM: TIMESTEP
2800
ITEM: NUMBER OF ATOMS
128
ITEM: BOX BOUNDS pp pp pp
-6.2010977310080699e+00 6.2010977310080699e+00
-2.1200334123104558e+00 2.1200334123104558e+00
-2.1200334123104558e+00 2.1200334123104558e+00
ITEM: ATOMS id mol type x y z ix iy iz
1 1 1 -4.59702 -0.813907 -0.794435 0 0 0
2 1 1 -5.0005 -0.480164 -0.0281811 0 0 0
3 1 1 -5.58568 -1.22347 -0.343041 0 0 0
4 1 1 -4.80658 -1.54011 0.184152 0 0 0
5 1 1 -3.94639 -1.27813 0.619482 0 0 0
6 1 1 -3.10116 -1.30751 0.160522 0 0 0
7 1 1 -2.66543 -0.624786 -0.334949 0 0 0
8 1 1 -2.44584 0.360092 -0.436845 0 0 0
9 1 2 -2.22057 0.0127178 -1.27921 0 0 0
10 1 2 -1.71468 0.413488 -2.03293 0 0 0
11 1 2 -1.37028 0.559455 -1.18495 0 0 0
12 1 2 -0.936811 1.19808 -0.567753 0 0 0
13 1 2 -0.292022 0.469555 -0.77655 0 0 0
14 1 2 0.453229 0.0861156 -1.22933 0 0 0
15 1 2 0.212594 -0.697536 -1.65764 0 0 0
16 1 2 -0.535056 -0.668056 1.97372 0 0 -1
17 2 1 -1.72657 -1.19278 0.639037 0 0 -1
18 2 1 -2.15423 -0.380108 0.876556 0 0 -1
19 2 1 -1.49922 -0.510966 1.58075 0 0 -1
20 2 1 -1.03558 0.292857 1.30162 0 0 -1
21 2 1 -1.02536 0.335914 0.32168 0 0 -1
22 2 1 -0.648943 -0.472737 0.6448 0 0 -1
23 2 1 0.124936 0.196913 0.49598 0 0 -1
24 2 1 0.468835 -0.7266 0.727789 0 0 -1
25 2 2 1.24303 -0.466845 0.232226 0 0 -1
26 2 2 2.08332 -0.26318 -0.167586 0 0 -1
27 2 2 1.97491 0.518384 0.437352 0 0 -1
28 2 2 2.36142 0.468407 1.23368 0 0 -1
29 2 2 3.05608 0.861434 1.82185 0 0 -1
30 2 2 2.7087 1.75624 1.65025 0 0 -1
31 2 2 2.78102 1.91108 0.707808 0 0 -1
32 2 2 2.17204 -1.69452 1.19333 0 1 -1
33 3 1 -2.22249 -1.78831 2.01842 0 1 -1
34 3 1 -1.24654 -1.69346 1.85627 0 1 -1
35 3 1 -0.499224 -1.83252 -1.84802 0 1 0
36 3 1 -0.261734 -1.92887 1.5108 0 1 -1
37 3 1 0.46536 -1.69773 -2.14578 0 1 0
38 3 1 1.21409 2.09021 -1.79212 0 0 0
39 3 1 1.52527 -1.34356 -1.38793 0 1 0
40 3 1 2.12046 -0.736682 -1.83625 0 1 0
41 3 2 2.85568 -0.701041 -1.30478 0 1 0
42 3 2 3.77686 -1.00282 -1.25638 0 1 0
43 3 2 4.58526 -0.921532 -0.762748 0 1 0
44 3 2 4.68195 -1.69079 -0.128246 0 1 0
45 3 2 4.66991 1.6005 -0.37526 0 0 0
46 3 2 3.77655 1.24022 -0.489189 0 0 0
47 3 2 3.82822 1.6503 -1.32493 0 0 0
48 3 2 3.01617 -2.04074 -1.4807 0 1 0
49 4 1 -5.64226 1.86824 -0.339667 0 -1 1
50 4 1 -5.34923 1.3869 -1.13005 0 -1 1
51 4 1 -5.37301 1.2879 -2.09743 0 -1 1
52 4 1 -4.7182 0.98925 1.41917 0 -1 0
53 4 1 -4.07696 0.13178 1.28528 0 -1 0
54 4 1 -3.96726 0.0185714 0.363325 0 -1 0
55 4 1 -3.81638 0.429658 -0.529797 0 -1 0
56 4 1 -3.58499 1.41204 -0.452291 0 -1 0
57 4 2 -2.7636 1.93426 -0.605744 0 -1 0
58 4 2 -1.90543 1.57437 -0.780457 0 -1 0
59 4 2 -1.31041 -2.02276 -1.14224 0 0 0
60 4 2 -0.958391 -1.25168 -0.579407 0 0 0
61 4 2 -0.443382 -1.96558 -0.332392 0 0 0
62 4 2 0.415941 -1.65454 -0.12837 0 0 0
63 4 2 1.07473 -1.52174 0.486758 0 0 0
64 4 2 0.928816 -2.11811 1.2081 0 0 0
65 5 1 0.00261978 1.44407 -1.44902 0 0 0
66 5 1 -0.511081 0.734535 -1.91125 0 0 0
67 5 1 0.00418285 0.322004 1.69605 0 0 -1
68 5 1 0.775109 0.92291 1.8358 0 0 -1
69 5 1 0.999395 -0.0838182 1.81942 0 0 -1
70 5 1 1.72065 0.389632 -1.97533 0 0 0
71 5 1 1.99723 1.27285 -1.90761 0 0 0
72 5 1 2.73759 0.909481 -1.4281 0 0 0
73 5 2 2.65503 0.573615 -0.447028 0 0 0
74 5 2 3.18709 0.764293 0.389323 0 0 0
75 5 2 3.9376 1.09952 0.899987 0 0 0
76 5 2 4.09328 0.298561 0.352371 0 0 0
77 5 2 4.90757 0.684447 0.76223 0 0 0
78 5 2 5.14364 -0.106822 0.370463 0 0 0
79 5 2 5.80435 -0.857045 0.168945 0 0 0
80 5 2 5.81009 -1.5518 -0.485517 0 0 0
81 6 1 -4.61552 1.75593 0.598368 0 0 0
82 6 1 -3.84482 2.04365 1.107 0 0 0
83 6 1 -3.27951 1.20714 0.974903 0 0 0
84 6 1 -3.14885 1.75499 1.74517 0 0 0
85 6 1 -2.4094 1.1265 1.42654 0 0 0
86 6 1 -2.1009 1.86507 0.846501 0 0 0
87 6 1 -1.45539 1.09101 0.775222 0 0 0
88 6 1 -0.532508 1.37107 1.07776 0 0 0
89 6 2 0.0679693 1.61557 0.346945 0 0 0
90 6 2 0.5238 1.31092 -0.410914 0 0 0
91 6 2 1.18494 1.94312 -0.309822 0 0 0
92 6 2 2.13235 -1.92648 -0.195494 0 1 0
93 6 2 2.91451 -1.21567 -0.283237 0 1 0
94 6 2 3.44138 -0.786371 0.402979 0 1 0
95 6 2 2.8371 -0.416889 1.05591 0 1 0
96 6 2 1.9269 -0.599275 1.42257 0 1 0
97 7 1 -4.65221 0.401608 -1.51939 0 -1 1
98 7 1 -5.51451 0.212883 -2.08494 0 -1 1
99 7 1 -6.05785 0.171202 -1.28302 0 -1 1
100 7 1 6.13838 0.911786 -0.777494 -1 -1 1
101 7 1 5.79872 1.68311 -1.15045 -1 -1 1
102 7 1 5.54205 1.98048 -2.08766 -1 -1 1
103 7 1 5.22748 -1.54464 -1.5684 -1 0 1
104 7 1 -6.12715 -1.50891 -1.62118 0 0 1
105 7 2 -5.52437 -0.760619 -1.63562 0 0 1
106 7 2 -4.9467 -0.920489 1.86332 0 0 0
107 7 2 -4.99797 -1.79234 -1.95836 0 0 1
108 7 2 -4.22696 1.86118 2.05604 0 -1 0
109 7 2 -3.70432 -1.56651 2.00045 0 0 0
110 7 2 -3.40044 -1.00017 -1.49229 0 0 1
111 7 2 -3.36531 -0.199583 -2.03492 0 0 1
112 7 2 -3.00909 -0.656843 1.39559 0 0 0
113 8 1 3.59576 0.288475 -1.6472 0 -1 1
114 8 1 4.27847 0.41324 -1.02878 0 -1 1
115 8 1 5.06167 0.310507 -1.49341 0 -1 1
116 8 1 5.43892 0.694418 1.94032 0 -1 0
117 8 1 4.77249 1.22186 -1.92032 0 -1 1
118 8 1 3.96347 1.34067 1.841 0 -1 0
119 8 1 3.6971 2.09614 1.26567 0 -1 0
120 8 1 3.98708 -1.13027 1.46294 0 0 0
121 8 2 4.45731 -0.782676 -2.00857 0 0 1
122 8 2 4.93031 -0.220081 1.68794 0 0 0
123 8 2 5.69048 -0.489587 -2.00728 0 0 1
124 8 2 -6.22071 -0.308706 1.46989 1 0 0
125 8 2 -6.04635 -0.0128167 0.568868 1 0 0
126 8 2 -5.5707 0.721783 0.311378 1 0 0
127 8 2 -5.88544 1.21196 1.10718 1 0 0
128 8 2 -5.76616 2.09526 0.730335 1 0 0
ITEM: TIMESTEP
3000
ITEM: NUMBER OF ATOMS
128
ITEM: BOX BOUNDS pp pp pp
-6.2010977310080699e+00 6.2010977310080699e+00
-2.1200334123104558e+00 2.1200334123104558e+00
-2.1200334123104558e+00 2.1200334123104558e+00
ITEM: ATOMS id mol type x y z ix iy iz
1 1 1 -4.17676 -0.324038 -0.21189 0 0 0
2 1 1 -5.12489 -0.519937 -0.157447 0 0 0
3 1 1 -4.93142 -1.45072 0.000336328 0 0 0
4 1 1 -4.36066 -1.04908 0.747301 0 0 0
5 1 1 -3.51765 -1.19818 0.274979 0 0 0
6 1 1 -3.06776 -0.978218 -0.536769 0 0 0
7 1 1 -2.26329 -0.782656 -1.10175 0 0 0
8 1 1 -1.84187 -0.0525878 -0.593742 0 0 0
9 1 2 -2.53525 0.510871 -0.78949 0 0 0
10 1 2 -1.91818 0.343429 -1.51203 0 0 0
11 1 2 -1.36343 1.01226 -1.12727 0 0 0
12 1 2 -0.975959 1.25407 -0.2718 0 0 0
13 1 2 -0.203656 0.662938 -0.52363 0 0 0
14 1 2 0.288779 -0.0715486 -0.960504 0 0 0
15 1 2 0.24628 -0.78907 -1.5703 0 0 0
16 1 2 -0.661515 -0.905488 -1.74285 0 0 0
17 2 1 -2.20504 -1.39601 0.145579 0 0 -1
18 2 1 -2.07339 -0.672957 0.80847 0 0 -1
19 2 1 -1.68629 0.0446823 1.23146 0 0 -1
20 2 1 -0.716612 0.304216 1.23027 0 0 -1
21 2 1 -0.962135 0.25404 0.268943 0 0 -1
22 2 1 -0.554121 -0.322626 -0.293118 0 0 -1
23 2 1 -0.10461 -0.238906 0.605485 0 0 -1
24 2 1 0.442946 -1.04449 0.473907 0 0 -1
25 2 2 1.08073 -0.29122 0.327788 0 0 -1
26 2 2 1.91044 -0.0777679 -0.0676499 0 0 -1
27 2 2 1.80693 0.884753 0.0160709 0 0 -1
28 2 2 1.91872 0.695363 0.913324 0 0 -1
29 2 2 2.47968 1.26167 1.47446 0 0 -1
30 2 2 2.80273 1.95052 1.93046 0 0 -1
31 2 2 2.74823 2.09609 1.01722 0 0 -1
32 2 2 1.93621 -1.86788 1.45888 0 1 -1
33 3 1 -2.3263 -1.72938 2.0135 0 1 -1
34 3 1 -1.55498 -1.17751 1.97574 0 1 -1
35 3 1 -0.732174 -1.58787 1.72915 0 1 -1
36 3 1 0.198634 -1.72168 1.28109 0 1 -1
37 3 1 1.03862 -1.43474 1.67333 0 1 -1
38 3 1 1.47257 -1.64282 -1.72846 0 1 0
39 3 1 1.80645 -1.32742 -0.851631 0 1 0
40 3 1 1.84656 -0.527378 -1.39345 0 1 0
41 3 2 2.65894 -0.59727 -0.858956 0 1 0
42 3 2 3.42431 -1.16488 -0.756382 0 1 0
43 3 2 4.34469 -0.958771 -0.854634 0 1 0
44 3 2 4.57825 -1.24513 0.0243265 0 1 0
45 3 2 4.80727 -2.10238 -0.251277 0 1 0
46 3 2 4.33632 1.37058 -0.144056 0 0 0
47 3 2 3.79627 1.14032 -0.879714 0 0 0
48 3 2 3.5643 2.02014 -1.17297 0 0 0
49 4 1 -5.65099 1.96728 -0.652514 0 -1 1
50 4 1 -5.23257 1.40469 -1.29004 0 -1 1
51 4 1 -5.34843 1.25794 1.97965 0 -1 0
52 4 1 -4.41571 0.900223 1.67585 0 -1 0
53 4 1 -4.21832 0.115454 1.10525 0 -1 0
54 4 1 -3.57204 0.375291 0.4178 0 -1 0
55 4 1 -3.54263 0.441789 -0.496928 0 -1 0
56 4 1 -3.72068 1.38741 -0.257285 0 -1 0
57 4 2 -3.22909 2.11655 -0.70116 0 -1 0
58 4 2 -2.42613 1.56112 -0.516814 0 -1 0
59 4 2 -2.10573 -1.76334 -0.778254 0 0 0
60 4 2 -1.19434 -1.34691 -0.894045 0 0 0
61 4 2 -0.3003 -1.59398 -1.07247 0 0 0
62 4 2 0.147347 -1.83162 -0.211213 0 0 0
63 4 2 1.07798 -1.84026 -0.175729 0 0 0
64 4 2 1.00903 1.78277 0.540985 0 -1 0
65 5 1 0.140832 1.53349 -1.38413 0 0 0
66 5 1 -0.588534 1.26147 -1.88031 0 0 0
67 5 1 -0.376768 0.2602 -1.93171 0 0 0
68 5 1 0.555494 0.44937 -1.95913 0 0 0
69 5 1 0.896673 0.781449 1.39516 0 0 -1
70 5 1 1.60023 0.326736 1.86568 0 0 -1
71 5 1 1.54545 0.994006 -1.6576 0 0 0
72 5 1 2.40691 1.01579 -1.22128 0 0 0
73 5 2 2.76612 1.02478 -0.384745 0 0 0
74 5 2 3.20963 0.33548 -0.0201702 0 0 0
75 5 2 3.84083 -0.122009 0.650305 0 0 0
76 5 2 4.69504 -0.0644802 1.03788 0 0 0
77 5 2 4.7082 -0.252749 0.0674482 0 0 0
78 5 2 5.55595 -0.552439 -0.349139 0 0 0
79 5 2 -6.17168 -1.14628 0.126143 1 0 0
80 5 2 -5.9367 -1.29041 -0.81772 1 0 0
81 6 1 -4.42154 1.05096 0.528924 0 0 0
82 6 1 -4.51738 2.05021 0.713075 0 0 0
83 6 1 -3.70709 1.86926 1.11459 0 0 0
84 6 1 -3.36531 1.29864 1.77767 0 0 0
85 6 1 -2.49314 1.18147 1.49776 0 0 0
86 6 1 -1.57386 1.15902 1.23279 0 0 0
87 6 1 -1.39746 1.95025 0.79974 0 0 0
88 6 1 -0.507527 1.41912 0.861867 0 0 0
89 6 2 0.192589 1.21196 0.332734 0 0 0
90 6 2 0.796369 1.18848 -0.354021 0 0 0
91 6 2 1.26335 1.78189 -0.896093 0 0 0
92 6 2 2.13146 1.98443 -0.453833 0 0 0
93 6 2 2.70853 -1.60164 0.0164022 0 1 0
94 6 2 2.5562 -0.885636 0.666179 0 1 0
95 6 2 2.57377 -0.6902 1.5608 0 1 0
96 6 2 1.62882 -0.548574 1.4164 0 1 0
97 7 1 -4.81423 0.213798 -1.33133 0 -1 1
98 7 1 -5.6351 0.400727 -1.88675 0 -1 1
99 7 1 -6.19287 0.527086 -1.14051 0 -1 1
100 7 1 5.41253 0.78976 -0.650378 -1 -1 1
101 7 1 5.53135 1.74292 -0.973291 -1 -1 1
102 7 1 6.09382 1.7646 -1.7564 -1 -1 1
103 7 1 5.51559 -1.92663 1.96801 -1 0 0
104 7 1 -5.88922 -1.59722 2.06815 0 0 0
105 7 2 -5.17749 -1.27763 -1.61304 0 0 1
106 7 2 -4.81137 -0.952875 1.82251 0 0 0
107 7 2 -4.89359 -1.91674 1.79768 0 0 0
108 7 2 -4.35342 -1.85628 -1.60289 0 0 1
109 7 2 -3.45131 -1.58847 -1.94143 0 0 1
110 7 2 -3.74511 -0.694999 -1.97754 0 0 1
111 7 2 -3.20184 0.0466671 -1.7844 0 0 1
112 7 2 -2.79763 -0.602283 1.89916 0 0 0
113 8 1 3.89264 0.319614 -1.77829 0 -1 1
114 8 1 3.94442 -0.000606296 -0.880945 0 -1 1
115 8 1 4.7809 0.0884526 -1.31718 0 -1 1
116 8 1 5.42248 0.583823 -1.91475 0 -1 1
117 8 1 4.93663 1.45284 -1.83816 0 -1 1
118 8 1 4.46754 1.6387 1.59272 0 -1 0
119 8 1 3.8933 -1.97948 0.97465 0 0 0
120 8 1 4.06979 -1.10765 1.32883 0 0 0
121 8 2 4.43487 -1.12747 -2.0612 0 0 1
122 8 2 5.21124 -0.529774 2.06681 0 0 0
123 8 2 6.14365 -0.537833 -1.8701 0 0 1
124 8 2 -5.96188 -0.282927 1.43415 1 0 0
125 8 2 -6.18954 0.195154 0.630271 1 0 0
126 8 2 -5.4268 0.672511 0.222136 1 0 0
127 8 2 -5.8454 1.32857 0.729117 1 0 0
128 8 2 6.1618 1.98991 1.24928 0 0 0
ITEM: TIMESTEP
3200
ITEM: NUMBER OF ATOMS
128
ITEM: BOX BOUNDS pp pp pp
-6.2010977310080699e+00 6.2010977310080699e+00
-2.1200334123104558e+00 2.1200334123104558e+00
-2.1200334123104558e+00 2.1200334123104558e+00
ITEM: ATOMS id mol type x y z ix iy iz
1 1 1 -4.59821 -0.128341 -0.05487 0 0 0
2 1 1 -5.01039 -0.836957 0.395632 0 0 0
3 1 1 -4.12578 -1.03183 0.610206 0 0 0
4 1 1 -3.23973 -1.29882 0.876035 0 0 0
5 1 1 -3.34108 -1.24336 -0.116119 0 0 0
6 1 1 -3.23613 -0.351777 -0.359927 0 0 0
7 1 1 -2.60688 -0.611014 -1.07177 0 0 0
8 1 1 -1.87398 -0.943542 -0.474295 0 0 0
9 1 2 -1.63855 -0.017053 -0.61938 0 0 0
10 1 2 -2.141 0.599668 -1.15186 0 0 0
11 1 2 -1.50546 1.26568 -1.3094 0 0 0
12 1 2 -0.701446 1.42153 -0.816814 0 0 0
13 1 2 -0.133972 0.599409 -0.776909 0 0 0
14 1 2 0.650401 0.0746734 -0.927565 0 0 0
15 1 2 -0.127903 -0.466334 -1.18601 0 0 0
16 1 2 -0.620608 -0.90969 -1.85409 0 0 0
17 2 1 -2.31708 -1.4008 0.516517 0 0 -1
18 2 1 -2.30099 -0.926262 1.29829 0 0 -1
19 2 1 -2.00937 -0.380681 0.491528 0 0 -1
20 2 1 -1.55155 0.372826 0.80839 0 0 -1
21 2 1 -0.995395 0.391718 0.0692578 0 0 -1
22 2 1 -0.804558 -0.539695 -0.0881745 0 0 -1
23 2 1 -0.254891 -0.290159 0.627215 0 0 -1
24 2 1 0.56889 -0.813633 0.792171 0 0 -1
25 2 2 0.825888 0.149865 0.765074 0 0 -1
26 2 2 1.55263 0.047673 0.155647 0 0 -1
27 2 2 2.12888 0.818041 0.127852 0 0 -1
28 2 2 2.05008 0.513742 0.984023 0 0 -1
29 2 2 2.47563 1.16741 1.55267 0 0 -1
30 2 2 3.37136 1.16302 1.77718 0 0 -1
31 2 2 3.2962 -2.07971 1.83572 0 1 -1
32 2 2 2.32594 -1.98656 1.55641 0 1 -1
33 3 1 -2.46885 -1.88064 2.05609 0 1 -1
34 3 1 -1.55356 -1.82967 1.77073 0 1 -1
35 3 1 -1.08235 -1.33482 1.06575 0 1 -1
36 3 1 -0.289062 -1.36215 1.59719 0 1 -1
37 3 1 0.543558 -0.940389 1.75214 0 1 -1
38 3 1 1.34393 -1.1831 -2.02348 0 1 0
39 3 1 1.04851 -1.34349 -1.15537 0 1 0
40 3 1 1.8632 -0.83489 -0.975252 0 1 0
41 3 2 2.80946 -0.836293 -1.11143 0 1 0
42 3 2 3.43271 -0.973377 -0.416334 0 1 0
43 3 2 4.23509 -1.39945 -0.792223 0 1 0
44 3 2 4.5184 -1.04182 0.0841193 0 1 0
45 3 2 4.64272 -1.93056 0.381756 0 1 0
46 3 2 4.1288 1.61195 0.0749636 0 0 0
47 3 2 4.28415 0.936555 -0.556542 0 0 0
48 3 2 4.04251 1.8323 -0.935423 0 0 0
49 4 1 -5.17014 1.44055 -1.03279 0 -1 1
50 4 1 -4.8838 1.56856 -1.99519 0 -1 1
51 4 1 -4.93366 0.906263 1.5869 0 -1 0
52 4 1 -4.49299 0.0833322 1.30299 0 -1 0
53 4 1 -3.62233 -0.257846 1.27085 0 -1 0
54 4 1 -3.26374 0.406531 0.646616 0 -1 0
55 4 1 -3.23953 0.810438 -0.272536 0 -1 0
56 4 1 -3.86227 1.44576 -0.688612 0 -1 0
57 4 2 -3.31271 -2.12845 -1.07105 0 0 0
58 4 2 -3.06333 2.01113 -0.192189 0 -1 0
59 4 2 -2.30511 -1.8275 -0.697121 0 0 0
60 4 2 -1.52397 -1.67452 -1.32037 0 0 0
61 4 2 -0.567218 -1.84782 -1.18612 0 0 0
62 4 2 -0.0945091 -1.41781 -0.43067 0 0 0
63 4 2 0.578367 -1.89175 0.0341807 0 0 0
64 4 2 1.49656 2.07501 0.202412 0 -1 0
65 5 1 0.342303 -1.97399 -1.83465 0 1 0
66 5 1 -0.27124 1.48717 -1.91765 0 0 0
67 5 1 -0.781159 0.608546 -1.95212 0 0 0
68 5 1 0.0557247 0.162978 2.06726 0 0 -1
69 5 1 0.338984 0.982044 1.72949 0 0 -1
70 5 1 1.20435 0.811276 -1.96057 0 0 0
71 5 1 1.6948 0.587748 -1.15581 0 0 0
72 5 1 2.40705 0.924386 -1.61523 0 0 0
73 5 2 2.86824 0.934595 -0.742819 0 0 0
74 5 2 3.37232 0.417358 -0.0950428 0 0 0
75 5 2 3.43635 -0.348941 0.515938 0 0 0
76 5 2 4.2567 0.0322538 0.903754 0 0 0
77 5 2 5.11086 -0.196286 0.451313 0 0 0
78 5 2 5.70021 -0.461597 -0.347608 0 0 0
79 5 2 -6.10208 -1.21348 -0.276668 1 0 0
80 5 2 -5.29351 -1.51287 -0.834293 1 0 0
81 6 1 -4.5426 0.982813 0.340909 0 0 0
82 6 1 -3.83606 1.3886 0.864527 0 0 0
83 6 1 -3.47504 1.82461 1.618 0 0 0
84 6 1 -2.97738 1.07635 1.60497 0 0 0
85 6 1 -2.38723 1.69569 1.12451 0 0 0
86 6 1 -1.95381 1.27434 1.91052 0 0 0
87 6 1 -1.09745 1.19731 1.517 0 0 0
88 6 1 -0.655468 1.47458 0.630167 0 0 0
89 6 2 0.0152437 1.38108 -0.176994 0 0 0
90 6 2 0.768349 1.2739 -0.829447 0 0 0
91 6 2 1.31223 1.86884 -1.28139 0 0 0
92 6 2 2.1035 1.90413 -0.719323 0 0 0
93 6 2 2.46079 -1.75362 0.0733086 0 1 0
94 6 2 1.9079 -1.23294 0.678755 0 1 0
95 6 2 2.48554 -0.808951 1.32826 0 1 0
96 6 2 1.95473 -0.124858 1.81461 0 1 0
97 7 1 -4.52321 0.544253 -1.66819 0 -1 1
98 7 1 -5.39847 0.419058 -1.38274 0 -1 1
99 7 1 6.05563 0.514975 -1.24415 -1 -1 1
100 7 1 5.96194 0.917045 -0.337765 -1 -1 1
101 7 1 5.39829 1.55044 -0.762143 -1 -1 1
102 7 1 6.04963 1.61389 -1.44933 -1 -1 1
103 7 1 5.6998 -1.92398 -1.99489 -1 0 1
104 7 1 -6.05271 -1.40998 1.80345 0 0 0
105 7 2 -5.31596 -1.0358 -2.03794 0 0 1
106 7 2 -4.8072 -0.826855 1.47571 0 0 0
107 7 2 -4.47564 -1.73436 1.64307 0 0 0
108 7 2 -4.04989 -1.79114 -1.69572 0 0 1
109 7 2 -3.5227 -1.03911 -1.65428 0 0 1
110 7 2 -4.12315 -0.326273 -2.0345 0 0 1
111 7 2 -3.43821 0.397102 -1.86444 0 0 1
112 7 2 -2.6895 -0.191743 2.10872 0 0 0
113 8 1 3.69095 0.302514 -1.94669 0 -1 1
114 8 1 3.87029 -0.193686 -1.02469 0 -1 1
115 8 1 4.82054 -0.010006 -1.27052 0 -1 1
116 8 1 4.80806 0.887894 -1.62622 0 -1 1
117 8 1 4.51723 1.69074 -2.01199 0 -1 1
118 8 1 5.10923 1.77728 1.42532 0 -1 0
119 8 1 4.20074 1.67831 1.31891 0 -1 0
120 8 1 4.29612 -1.67101 1.40346 0 0 0
121 8 2 4.45303 -1.49006 -1.93679 0 0 1
122 8 2 4.85088 -0.696891 2.0056 0 0 0
123 8 2 5.79529 -0.336114 2.00849 0 0 0
124 8 2 -5.77029 -0.0321335 1.64837 1 0 0
125 8 2 -6.17812 0.475912 0.932778 1 0 0
126 8 2 -5.55179 0.446002 0.24177 1 0 0
127 8 2 -5.69187 1.45545 0.218354 1 0 0
128 8 2 5.83587 1.61412 0.628617 0 0 0
ITEM: TIMESTEP
3400
ITEM: NUMBER OF ATOMS
128
ITEM: BOX BOUNDS pp pp pp
-6.2010977310080699e+00 6.2010977310080699e+00
-2.1200334123104558e+00 2.1200334123104558e+00
-2.1200334123104558e+00 2.1200334123104558e+00
ITEM: ATOMS id mol type x y z ix iy iz
1 1 1 -5.13542 -0.259469 0.123263 0 0 0
2 1 1 -5.03625 -1.18189 0.370951 0 0 0
3 1 1 -4.11221 -0.918395 0.46704 0 0 0
4 1 1 -3.26191 -1.36012 0.501259 0 0 0
5 1 1 -2.9006 -0.979691 -0.282122 0 0 0
6 1 1 -3.3211 -0.477456 -0.958529 0 0 0
7 1 1 -2.41264 -0.612949 -1.3306 0 0 0
8 1 1 -1.87299 -0.670958 -0.571239 0 0 0
9 1 2 -1.69264 0.181194 -0.901823 0 0 0
10 1 2 -2.34565 0.722811 -0.4393 0 0 0
11 1 2 -1.86257 1.16222 -1.17248 0 0 0
12 1 2 -1.02554 1.04428 -0.737302 0 0 0
13 1 2 -0.0484072 1.01861 -0.905776 0 0 0
14 1 2 0.169322 0.0801098 -0.974044 0 0 0
15 1 2 -0.629258 -0.286017 -1.40625 0 0 0
16 1 2 -0.932206 -0.496717 1.93046 0 0 -1
17 2 1 -2.2858 -1.74933 0.767181 0 0 -1
18 2 1 -2.44844 -1.05969 1.29525 0 0 -1
19 2 1 -2.07057 -0.483 0.571964 0 0 -1
20 2 1 -2.03867 0.445646 0.57062 0 0 -1
21 2 1 -1.28499 0.112988 0.0294607 0 0 -1
22 2 1 -0.490138 -0.439825 0.151823 0 0 -1
23 2 1 0.218038 -0.334427 0.824826 0 0 -1
24 2 1 0.527071 0.101779 0.00814127 0 0 -1
25 2 2 1.17627 0.337092 0.679965 0 0 -1
26 2 2 1.90959 0.201766 0.0740138 0 0 -1
27 2 2 2.4416 0.977636 0.207613 0 0 -1
28 2 2 2.87947 0.867028 1.03556 0 0 -1
29 2 2 2.65833 1.71926 1.3166 0 0 -1
30 2 2 3.33949 1.20968 1.9279 0 0 -1
31 2 2 2.91988 1.94345 -1.8512 0 0 0
32 2 2 3.30859 -1.44807 2.01988 0 1 -1
33 3 1 -2.27724 -1.82356 2.10446 0 1 -1
34 3 1 -1.40882 -1.49887 1.9197 0 1 -1
35 3 1 -0.558905 -1.66366 1.47192 0 1 -1
36 3 1 0.316804 -1.32487 1.18859 0 1 -1
37 3 1 0.05895 -0.80837 1.98776 0 1 -1
38 3 1 0.836968 -1.39975 2.10862 0 1 -1
39 3 1 0.917109 -0.756562 -1.40726 0 1 0
40 3 1 1.47066 -1.06653 -0.756203 0 1 0
41 3 2 2.33924 -1.39799 -1.00504 0 1 0
42 3 2 3.12421 -0.997617 -0.524887 0 1 0
43 3 2 4.02564 -1.25401 -0.706717 0 1 0
44 3 2 4.85737 -1.03277 -0.259939 0 1 0
45 3 2 4.38088 -1.80092 0.133492 0 1 0
46 3 2 3.47558 1.96265 0.102471 0 0 0
47 3 2 4.1533 1.32861 0.0259133 0 0 0
48 3 2 3.8625 0.968626 -0.854637 0 0 0
49 4 1 -4.98559 1.48298 -1.40209 0 -1 1
50 4 1 -4.71886 1.39701 1.86094 0 -1 0
51 4 1 -4.91935 0.670598 1.31525 0 -1 0
52 4 1 -3.94241 0.51021 1.04028 0 -1 0
53 4 1 -3.4465 -0.294215 1.17915 0 -1 0
54 4 1 -3.12352 -0.0619739 0.30268 0 -1 0
55 4 1 -3.37851 0.703436 -0.2432 0 -1 0
56 4 1 -4.0578 1.05806 -0.854935 0 -1 0
57 4 2 -3.23815 1.46094 -1.23888 0 -1 0
58 4 2 -3.30185 -2.09801 -0.594485 0 0 0
59 4 2 -2.44522 1.80742 -0.430021 0 -1 0
60 4 2 -1.81868 -2.11398 -1.00454 0 0 0
61 4 2 -1.15085 -1.65496 -0.51435 0 0 0
62 4 2 -0.239943 -1.79627 -0.321757 0 0 0
63 4 2 0.343217 -1.07205 -0.0416598 0 0 0
64 4 2 1.12618 -1.30557 0.417848 0 0 0
65 5 1 0.171509 2.01734 -1.79676 0 0 0
66 5 1 -0.655068 1.67984 1.99874 0 0 -1
67 5 1 -0.602428 0.878976 -1.81576 0 0 0
68 5 1 -0.316994 0.348023 1.70528 0 0 -1
69 5 1 0.518017 0.463794 -2.05102 0 0 0
70 5 1 0.97251 1.20652 -1.59865 0 0 0
71 5 1 1.55575 0.413555 -1.60249 0 0 0
72 5 1 2.20321 0.930924 -1.92509 0 0 0
73 5 2 2.7938 0.563514 -1.27302 0 0 0
74 5 2 2.9802 0.0158395 -0.424024 0 0 0
75 5 2 3.56724 -0.0716395 0.358404 0 0 0
76 5 2 4.5866 0.0419389 0.424339 0 0 0
77 5 2 5.38338 -0.425596 0.433315 0 0 0
78 5 2 6.23291 -0.833457 0.230436 0 0 0
79 5 2 -6.05129 -0.887622 -0.666807 1 0 0
80 5 2 -5.60011 -1.65507 -0.282251 1 0 0
81 6 1 -4.27924 -2.02187 0.116027 0 1 0
82 6 1 -3.61331 1.74881 0.744281 0 0 0
83 6 1 -3.26699 2.0958 1.57536 0 0 0
84 6 1 -3.07641 1.24109 2.06012 0 0 0
85 6 1 -2.44633 1.44934 1.29687 0 0 0
86 6 1 -1.72126 0.867433 1.56288 0 0 0
87 6 1 -1.06553 0.87024 0.906136 0 0 0
88 6 1 -0.114212 0.759965 0.768759 0 0 0
89 6 2 0.648637 1.21893 0.395037 0 0 0
90 6 2 0.735436 1.63511 -0.402198 0 0 0
91 6 2 1.5431 1.9596 -0.886556 0 0 0
92 6 2 2.40629 1.59689 -0.56285 0 0 0
93 6 2 2.22464 -1.84811 -0.0362508 0 1 0
94 6 2 2.39822 -1.14217 0.627611 0 1 0
95 6 2 1.74577 -0.604103 1.16214 0 1 0
96 6 2 2.40768 -0.518356 1.90481 0 1 0
97 7 1 -4.70051 0.163935 -0.834714 0 -1 1
98 7 1 -5.44849 -0.300644 -1.41106 0 -1 1
99 7 1 6.01226 0.0555407 -1.27999 -1 -1 1
100 7 1 -5.78103 0.704093 -0.864917 0 -1 1
101 7 1 5.88906 1.36302 -0.762818 -1 -1 1
102 7 1 -6.03941 2.04022 -1.33016 0 -1 1
103 7 1 5.99757 -1.74177 -2.09434 -1 0 1
104 7 1 -6.11186 -0.836374 2.09053 0 0 0
105 7 2 -5.40952 -1.34699 -1.76082 0 0 1
106 7 2 -5.34257 -1.4275 1.53126 0 0 0
107 7 2 -4.56746 -1.89617 1.29053 0 0 0
108 7 2 -4.012 -1.52002 1.99261 0 0 0
109 7 2 -3.68143 -0.744199 -1.89537 0 0 1
110 7 2 -4.14854 0.0183581 -1.91571 0 0 1
111 7 2 -3.40548 0.445608 -1.45228 0 0 1
112 7 2 -2.45443 0.372678 -1.73782 0 0 1
113 8 1 3.61316 -0.422874 -1.47381 0 -1 1
114 8 1 4.286 -0.0417143 -0.973219 0 -1 1
115 8 1 5.14127 0.233032 -0.555657 0 -1 1
116 8 1 4.9753 0.65645 -1.42272 0 -1 1
117 8 1 5.34947 1.47524 -1.72543 0 -1 1
118 8 1 5.59966 1.57067 1.57799 0 -1 0
119 8 1 4.69866 1.46855 1.16007 0 -1 0
120 8 1 4.04479 2.00746 1.61294 0 -1 0
121 8 2 4.57428 -1.5577 -2.09984 0 0 1
122 8 2 5.2255 -0.959946 1.73003 0 0 0
123 8 2 5.00208 -0.0592004 1.73504 0 0 0
124 8 2 5.86356 -0.24765 1.31024 0 0 0
125 8 2 6.00826 0.699125 1.15054 0 0 0
126 8 2 -6.04781 0.898063 0.297987 1 0 0
127 8 2 -5.93931 1.77874 0.647208 1 0 0
128 8 2 5.52501 1.90097 0.415338 0 0 0
ITEM: TIMESTEP
3600
ITEM: NUMBER OF ATOMS
128
ITEM: BOX BOUNDS pp pp pp
-6.2010977310080699e+00 6.2010977310080699e+00
-2.1200334123104558e+00 2.1200334123104558e+00
-2.1200334123104558e+00 2.1200334123104558e+00
ITEM: ATOMS id mol type x y z ix iy iz
1 1 1 -5.16478 -0.198073 0.877307 0 0 0
2 1 1 -4.49847 -0.860778 0.745765 0 0 0
3 1 1 -4.13914 -0.756918 -0.15605 0 0 0
4 1 1 -3.56376 -0.575219 0.529419 0 0 0
5 1 1 -3.18016 -1.01772 -0.254623 0 0 0
6 1 1 -3.06789 -1.05208 -1.24205 0 0 0
7 1 1 -2.13489 -1.04151 -1.39256 0 0 0
8 1 1 -1.65865 -0.50338 -0.719907 0 0 0
9 1 2 -2.27473 0.117503 -0.977141 0 0 0
10 1 2 -2.25954 1.08052 -0.777337 0 0 0
11 1 2 -1.54783 1.51075 -1.25235 0 0 0
12 1 2 -1.03199 1.5465 -0.462661 0 0 0
13 1 2 -0.438468 0.793263 -0.336391 0 0 0
14 1 2 -0.940798 0.267269 -0.922531 0 0 0
15 1 2 -1.34846 -0.220433 -1.64476 0 0 0
16 1 2 -1.14247 -0.611752 1.75211 0 0 -1
17 2 1 -2.11843 -1.87387 1.32547 0 0 -1
18 2 1 -2.56732 -1.02588 1.32868 0 0 -1
19 2 1 -1.82593 -1.04955 0.647344 0 0 -1
20 2 1 -2.22472 -0.14887 0.807389 0 0 -1
21 2 1 -1.44543 0.109198 0.222251 0 0 -1
22 2 1 -0.564376 -0.22572 0.226542 0 0 -1
23 2 1 0.206607 -0.561791 0.617259 0 0 -1
24 2 1 0.915679 -0.0852641 0.0974683 0 0 -1
25 2 2 1.58478 0.0266751 0.759165 0 0 -1
26 2 2 2.05076 0.673146 0.160584 0 0 -1
27 2 2 2.64542 0.557722 0.877097 0 0 -1
28 2 2 3.35915 0.992663 1.34516 0 0 -1
29 2 2 3.02236 1.88848 1.4041 0 0 -1
30 2 2 3.16059 1.57734 -1.95209 0 0 0
31 2 2 2.53972 -1.89929 -1.92246 0 1 0
32 2 2 3.37133 -1.64444 -1.59316 0 1 0
33 3 1 -2.15043 -2.0373 -1.69069 0 1 0
34 3 1 -1.3335 -1.6707 -2.03209 0 1 0
35 3 1 -0.728171 -1.72042 1.45899 0 1 -1
36 3 1 0.203559 -1.59485 1.48561 0 1 -1
37 3 1 0.938325 -1.01459 1.6029 0 1 -1
38 3 1 0.566127 -1.21306 -1.78243 0 1 0
39 3 1 0.703586 -0.353969 -1.4186 0 1 0
40 3 1 1.44186 -0.0533234 -0.94414 0 1 0
41 3 2 2.17892 -0.716439 -1.05659 0 1 0
42 3 2 3.12022 -0.858732 -0.910205 0 1 0
43 3 2 3.89609 -1.1427 -0.361246 0 1 0
44 3 2 4.56765 -1.49357 -0.970971 0 1 0
45 3 2 4.57858 1.95015 -0.492767 0 0 0
46 3 2 4.17608 -2.03054 0.305728 0 1 0
47 3 2 3.35406 1.59419 0.198429 0 0 0
48 3 2 4.10403 1.07598 -0.233106 0 0 0
49 4 1 -5.10294 1.39278 -1.69049 0 -1 1
50 4 1 -4.41291 1.26577 1.97493 0 -1 0
51 4 1 -4.90724 0.597027 1.50575 0 -1 0
52 4 1 -4.20827 0.838092 0.873244 0 -1 0
53 4 1 -3.3092 0.756827 0.416326 0 -1 0
54 4 1 -3.34592 0.254333 -0.403224 0 -1 0
55 4 1 -4.29408 0.455586 -0.280325 0 -1 0
56 4 1 -4.27807 1.26045 -0.852179 0 -1 0
57 4 2 -3.32902 1.01959 -0.963316 0 -1 0
58 4 2 -3.46918 1.96752 -1.00601 0 -1 0
59 4 2 -2.64812 -2.05088 -0.347253 0 0 0
60 4 2 -1.84381 1.79835 0.107451 0 -1 0
61 4 2 -1.05666 -1.7544 0.185779 0 0 0
62 4 2 -0.202518 -1.47987 -0.194014 0 0 0
63 4 2 0.674555 -1.58031 -0.583166 0 0 0
64 4 2 1.5501 -1.23023 -0.288588 0 0 0
65 5 1 -0.0564113 1.94308 -1.77718 0 0 0
66 5 1 -0.749171 1.46602 1.95549 0 0 -1
67 5 1 -0.627396 0.716169 -1.76452 0 0 0
68 5 1 -0.232818 0.181988 1.83404 0 0 -1
69 5 1 0.521111 0.652107 -2.00727 0 0 0
70 5 1 1.14635 1.28161 -1.658 0 0 0
71 5 1 1.52993 0.456144 -1.99388 0 0 0
72 5 1 2.4818 0.737962 -1.99802 0 0 0
73 5 2 2.45914 0.309017 -1.10023 0 0 0
74 5 2 3.03073 0.0909806 -0.376028 0 0 0
75 5 2 3.77129 -0.247843 0.136921 0 0 0
76 5 2 4.63945 -0.580189 0.264815 0 0 0
77 5 2 5.35414 -0.293801 -0.326364 0 0 0
78 5 2 5.9588 -0.648126 0.395257 0 0 0
79 5 2 -5.60705 -0.870631 0.142349 1 0 0
80 5 2 -6.08081 -1.40186 -0.509361 1 0 0
81 6 1 -4.58415 -2.01316 0.0455473 0 1 0
82 6 1 -3.84708 2.01975 0.546257 0 0 0
83 6 1 -3.37998 -1.77525 1.26002 0 1 0
84 6 1 -2.98962 1.67924 1.65496 0 0 0
85 6 1 -2.49554 1.03327 1.0628 0 0 0
86 6 1 -1.64744 0.813004 1.48078 0 0 0
87 6 1 -0.804857 0.907515 0.95838 0 0 0
88 6 1 0.165982 1.2744 0.96044 0 0 0
89 6 2 0.971302 1.63461 0.534278 0 0 0
90 6 2 0.945896 1.04986 -0.21615 0 0 0
91 6 2 1.55789 1.72269 -0.696944 0 0 0
92 6 2 2.48507 1.88805 -0.393762 0 0 0
93 6 2 2.25054 -1.89134 0.397992 0 1 0
94 6 2 2.72814 -1.12785 0.619129 0 1 0
95 6 2 2.68007 -0.339181 1.21261 0 1 0
96 6 2 3.05928 -1.01793 1.77224 0 1 0
97 7 1 -4.76019 -1.09906 -1.2474 0 -1 1
98 7 1 -5.13969 -0.269675 -0.935315 0 -1 1
99 7 1 -6.13671 -0.192424 -1.09752 0 -1 1
100 7 1 -5.78474 0.679382 -1.09771 0 -1 1
101 7 1 -5.37637 1.31765 -0.457884 0 -1 1
102 7 1 -6.0074 1.72797 -1.06575 0 -1 1
103 7 1 5.98822 -2.03088 -1.81255 -1 0 1
104 7 1 -6.11578 -1.1118 -1.71751 0 0 1
105 7 2 -5.2712 -0.959988 2.06989 0 0 0
106 7 2 -5.66843 -1.54616 1.32598 0 0 0
107 7 2 -4.8071 -1.93666 1.56131 0 0 0
108 7 2 -4.24976 -1.18153 1.82643 0 0 0
109 7 2 -4.36262 -0.308663 1.62098 0 0 0
110 7 2 -4.3506 0.212178 -1.76908 0 0 1
111 7 2 -3.38911 0.201648 -1.70773 0 0 1
112 7 2 -2.77397 0.203359 1.77831 0 0 0
113 8 1 3.86944 -0.24869 -1.43966 0 -1 1
114 8 1 4.89566 -0.188534 -1.24197 0 -1 1
115 8 1 5.19363 0.755275 -1.24988 0 -1 1
116 8 1 5.78316 0.674912 -2.05914 0 -1 1
117 8 1 4.99748 1.29675 -2.04326 0 -1 1
118 8 1 5.28481 1.75446 1.45029 0 -1 0
119 8 1 4.77542 1.06148 1.00608 0 -1 0
120 8 1 4.197 1.77487 1.41947 0 -1 0
121 8 2 4.64905 -1.80304 2.03308 0 0 0
122 8 2 4.96726 -0.940589 -2.0431 0 0 1
123 8 2 4.38352 -0.474943 1.59361 0 0 0
124 8 2 5.2533 -0.262527 1.41268 0 0 0
125 8 2 6.15119 0.103926 1.17759 0 0 0
126 8 2 5.86413 0.991494 1.03246 0 0 0
127 8 2 -6.13516 1.77995 0.622669 1 0 0
128 8 2 5.48467 -1.88975 0.4271 0 1 0
ITEM: TIMESTEP
3800
ITEM: NUMBER OF ATOMS
128
ITEM: BOX BOUNDS pp pp pp
-6.2010977310080699e+00 6.2010977310080699e+00
-2.1200334123104558e+00 2.1200334123104558e+00
-2.1200334123104558e+00 2.1200334123104558e+00
ITEM: ATOMS id mol type x y z ix iy iz
1 1 1 -5.48078 -0.189933 1.20941 0 0 0
2 1 1 -4.83516 -0.583618 0.622367 0 0 0
3 1 1 -4.1885 -0.3744 -0.0601015 0 0 0
4 1 1 -3.64737 -0.940295 0.432918 0 0 0
5 1 1 -3.44762 -0.933069 -0.536317 0 0 0
6 1 1 -2.66813 -1.15215 -1.08407 0 0 0
7 1 1 -1.88398 -0.608917 -1.28862 0 0 0
8 1 1 -2.22436 -0.249772 -0.365298 0 0 0
9 1 2 -2.58922 0.150103 -1.16722 0 0 0
10 1 2 -2.0286 0.820264 -0.732939 0 0 0
11 1 2 -1.29363 1.37641 -0.489684 0 0 0
12 1 2 -0.433758 1.54506 -0.843451 0 0 0
13 1 2 -0.381746 0.665645 -0.476042 0 0 0
14 1 2 -1.12261 0.0512089 -0.624445 0 0 0
15 1 2 -1.3164 0.255991 -1.50978 0 0 0
16 1 2 -1.17009 -0.460565 -2.06339 0 0 0
17 2 1 -1.94712 2.05695 1.24604 0 -1 -1
18 2 1 -2.43456 -1.35231 1.46036 0 0 -1
19 2 1 -2.26295 -1.18891 0.540186 0 0 -1
20 2 1 -1.54845 -0.5639 0.938818 0 0 -1
21 2 1 -0.786307 -0.0556942 0.494578 0 0 -1
22 2 1 -0.00386015 -0.483601 0.385472 0 0 -1
23 2 1 0.642417 -0.665865 1.07447 0 0 -1
24 2 1 1.27736 -0.204946 0.54389 0 0 -1
25 2 2 2.15969 0.0479992 0.911728 0 0 -1
26 2 2 2.14404 0.944588 0.647492 0 0 -1
27 2 2 2.43941 1.08685 1.53348 0 0 -1
28 2 2 3.35001 0.94616 1.26268 0 0 -1
29 2 2 3.12932 1.88367 1.35611 0 0 -1
30 2 2 3.16711 1.62382 -1.97551 0 0 0
31 2 2 2.32419 -2.07697 -1.96648 0 1 0
32 2 2 2.62838 2.05352 -1.068 0 0 0
33 3 1 -2.06014 2.03199 -1.37961 0 0 0
34 3 1 -1.16783 -2.04874 -1.59438 0 1 0
35 3 1 -1.08774 -1.83501 1.75769 0 1 -1
36 3 1 -0.193514 -1.56939 1.57796 0 1 -1
37 3 1 0.665711 -1.42978 2.02159 0 1 -1
38 3 1 1.02597 -0.484178 2.01627 0 1 -1
39 3 1 0.416604 -0.437429 -1.4227 0 1 0
40 3 1 1.31688 -0.447927 -1.02223 0 1 0
41 3 2 2.26658 -0.251824 -1.04964 0 1 0
42 3 2 3.19763 -0.44912 -1.17549 0 1 0
43 3 2 3.65483 -1.27946 -0.981873 0 1 0
44 3 2 4.60434 -1.07023 -0.971716 0 1 0
45 3 2 4.93797 -1.87619 -0.738241 0 1 0
46 3 2 4.7306 2.05387 0.145166 0 0 0
47 3 2 3.8282 -2.06586 -0.0533702 0 1 0
48 3 2 3.53487 1.242 0.193199 0 0 0
49 4 1 -5.05035 1.73892 -2.03746 0 -1 1
50 4 1 -4.30106 1.64982 1.58308 0 -1 0
51 4 1 -4.95454 1.47125 0.846204 0 -1 0
52 4 1 -4.33199 1.2242 0.197188 0 -1 0
53 4 1 -3.43847 1.2447 0.0975872 0 -1 0
54 4 1 -3.7141 0.564345 -0.469567 0 -1 0
55 4 1 -4.56994 0.785668 -0.784552 0 -1 0
56 4 1 -4.36831 1.08563 -1.67887 0 -1 0
57 4 2 -3.70284 1.50791 -1.00175 0 -1 0
58 4 2 -2.83592 1.66675 -0.727946 0 -1 0
59 4 2 -2.24643 1.83005 0.0202259 0 -1 0
60 4 2 -1.28627 2.17161 0.340115 0 -1 0
61 4 2 -0.625248 -1.44456 0.581572 0 0 0
62 4 2 -0.244671 -1.57946 -0.289973 0 0 0
63 4 2 0.645398 -1.3676 -0.0936225 0 0 0
64 4 2 0.457348 -1.9133 -0.865826 0 0 0
65 5 1 -0.207937 -1.97642 -1.62025 0 1 0
66 5 1 -0.481155 1.50845 2.0757 0 0 -1
67 5 1 -0.710612 0.617797 1.80164 0 0 -1
68 5 1 0.0856854 0.0922687 1.9425 0 0 -1
69 5 1 0.531736 0.898008 2.14073 0 0 -1
70 5 1 1.39681 1.16499 -1.78667 0 0 0
71 5 1 1.65219 0.344384 2.17494 0 0 -1
72 5 1 2.35514 0.689329 -1.68519 0 0 0
73 5 2 3.10543 0.936885 -1.0873 0 0 0
74 5 2 2.9782 0.339385 -0.331681 0 0 0
75 5 2 3.66576 -0.10555 0.189852 0 0 0
76 5 2 4.26935 -0.870891 0.103695 0 0 0
77 5 2 5.0336 -0.296616 0.235827 0 0 0
78 5 2 5.99685 -0.584141 0.288664 0 0 0
79 5 2 -5.98785 -1.28116 0.711263 1 0 0
80 5 2 -5.836 -1.41681 -0.207412 1 0 0
81 6 1 -5.04039 -1.79951 0.348246 0 1 0
82 6 1 -4.13011 -2.02069 0.329951 0 1 0
83 6 1 -3.45271 -1.87767 1.02681 0 1 0
84 6 1 -3.28727 1.37836 1.06268 0 0 0
85 6 1 -2.34668 1.06578 0.777941 0 0 0
86 6 1 -1.39998 1.16207 0.741475 0 0 0
87 6 1 -0.500919 1.18614 0.529046 0 0 0
88 6 1 0.421861 1.23639 0.973731 0 0 0
89 6 2 0.657286 1.6947 0.189301 0 0 0
90 6 2 0.502604 0.791278 0.0448032 0 0 0
91 6 2 1.37408 1.01384 -0.35258 0 0 0
92 6 2 2.01316 1.76682 -0.285142 0 0 0
93 6 2 2.44343 -1.98936 0.495126 0 1 0
94 6 2 2.98956 -1.21158 0.557794 0 1 0
95 6 2 3.22151 -0.484666 1.20551 0 1 0
96 6 2 3.08428 -1.28583 1.63678 0 1 0
97 7 1 -5.20326 -1.77619 -1.33751 0 -1 1
98 7 1 -5.08299 -0.768641 -1.15431 0 -1 1
99 7 1 -5.71662 2.16273e-05 -1.17352 0 -1 1
100 7 1 -5.65081 0.997114 -1.2054 0 -1 1
101 7 1 -5.52422 1.08567 -0.291688 0 -1 1
102 7 1 -5.93399 1.8289 -0.73457 0 -1 1
103 7 1 5.86082 1.74337 -1.46055 -1 -1 1
104 7 1 6.13243 -1.58298 -1.60225 -1 0 1
105 7 2 -5.76081 -0.970463 1.99802 0 0 0
106 7 2 -5.35276 -1.60506 1.43771 0 0 0
107 7 2 -4.4353 -1.43707 1.34354 0 0 0
108 7 2 -3.89073 -1.31198 -2.09805 0 0 1
109 7 2 -4.67996 -0.642284 2.14693 0 0 0
110 7 2 -4.32162 0.0644706 -1.67968 0 0 1
111 7 2 -3.42345 -0.173328 -1.96432 0 0 1
112 7 2 -3.52226 -0.339697 1.33353 0 0 0
113 8 1 4.52181 -0.157998 -1.74174 0 -1 1
114 8 1 4.71017 0.580591 -1.09671 0 -1 1
115 8 1 5.5983 0.751671 -1.13058 0 -1 1
116 8 1 5.79909 0.937918 2.12933 0 -1 0
117 8 1 4.86613 1.13394 -2.05846 0 -1 1
118 8 1 5.30882 1.48595 1.42079 0 -1 0
119 8 1 4.53913 1.26077 0.8602 0 -1 0
120 8 1 4.35293 -2.06482 1.21334 0 0 0
121 8 2 4.48249 2.11659 -2.06166 0 -1 1
122 8 2 4.81383 -1.31789 1.95384 0 0 0
123 8 2 4.32748 -0.733691 1.28973 0 0 0
124 8 2 4.51124 0.175471 1.44565 0 0 0
125 8 2 5.41015 0.316542 1.15711 0 0 0
126 8 2 -6.04983 0.584913 0.992522 1 0 0
127 8 2 6.03447 1.25862 0.330237 0 0 0
128 8 2 5.80991 -2.02829 0.303108 0 1 0
ITEM: TIMESTEP
4000
ITEM: NUMBER OF ATOMS
128
ITEM: BOX BOUNDS pp pp pp
-6.2010977310080699e+00 6.2010977310080699e+00
-2.1200334123104558e+00 2.1200334123104558e+00
-2.1200334123104558e+00 2.1200334123104558e+00
ITEM: ATOMS id mol type x y z ix iy iz
1 1 1 -5.56193 -0.136573 1.61903 0 0 0
2 1 1 -4.90695 0.0925629 1.00028 0 0 0
3 1 1 -4.25629 -0.487288 0.573812 0 0 0
4 1 1 -3.49527 -0.451026 -0.0416483 0 0 0
5 1 1 -3.81848 -1.0043 -0.776532 0 0 0
6 1 1 -2.88659 -1.09788 -0.718351 0 0 0
7 1 1 -1.879 -0.861737 -0.938314 0 0 0
8 1 1 -2.22315 0.0208732 -1.0627 0 0 0
9 1 2 -2.26026 0.918159 -1.53481 0 0 0
10 1 2 -1.85343 1.10686 -0.628692 0 0 0
11 1 2 -1.02318 1.5825 -0.497873 0 0 0
12 1 2 -0.329953 0.990649 -0.658835 0 0 0
13 1 2 -0.0694706 0.276983 -1.34176 0 0 0
14 1 2 -0.618426 -0.276714 -0.787704 0 0 0
15 1 2 -1.23133 0.370972 -1.28481 0 0 0
16 1 2 -1.0807 -0.412183 -1.85845 0 0 0
17 2 1 -2.06517 1.87647 0.976121 0 -1 -1
18 2 1 -1.94761 -1.66969 1.61999 0 0 -1
19 2 1 -2.36047 -1.03331 1.03024 0 0 -1
20 2 1 -1.53357 -0.475969 0.766239 0 0 -1
21 2 1 -0.602074 -0.875184 0.737402 0 0 -1
22 2 1 0.0795188 -0.301693 0.468976 0 0 -1
23 2 1 1.00394 -0.560591 0.512692 0 0 -1
24 2 1 1.92027 -0.321414 0.600832 0 0 -1
25 2 2 2.71052 0.0547892 1.04927 0 0 -1
26 2 2 2.41774 0.944316 0.78163 0 0 -1
27 2 2 2.3296 1.04207 1.73077 0 0 -1
28 2 2 3.21385 1.08796 1.56431 0 0 -1
29 2 2 3.52904 2.0383 1.68161 0 0 -1
30 2 2 3.50686 -1.89578 -1.67218 0 1 0
31 2 2 2.82305 1.67304 -1.77093 0 0 0
32 2 2 2.14493 1.88778 -1.14893 0 0 0
33 3 1 -2.62147 2.02948 -1.88732 0 0 0
34 3 1 -1.79635 2.08707 -1.48718 0 0 0
35 3 1 -1.03887 -1.62102 -1.89693 0 1 0
36 3 1 -0.375392 -1.02524 1.93621 0 1 -1
37 3 1 0.522855 -1.41038 1.736 0 1 -1
38 3 1 0.937109 -0.916847 -1.79016 0 1 0
39 3 1 0.396097 -0.893943 -1.01842 0 1 0
40 3 1 1.2638 -1.06472 -0.681503 0 1 0
41 3 2 2.09385 -1.15475 -1.17066 0 1 0
42 3 2 2.95129 -0.97381 -1.41624 0 1 0
43 3 2 3.7088 -0.477541 -1.57626 0 1 0
44 3 2 4.23823 -0.931159 -0.949739 0 1 0
45 3 2 5.03474 -1.38898 -0.691688 0 1 0
46 3 2 4.32935 -2.02215 -0.657509 0 1 0
47 3 2 3.40384 -1.55684 -0.680421 0 1 0
48 3 2 2.90946 1.96823 -0.38696 0 0 0
49 4 1 -5.31114 1.10813 1.73978 0 -1 0
50 4 1 -4.79076 1.50331 1.08765 0 -1 0
51 4 1 -5.29467 0.996199 0.412516 0 -1 0
52 4 1 -4.47489 0.552252 0.187646 0 -1 0
53 4 1 -3.66237 0.302772 0.553579 0 -1 0
54 4 1 -3.26298 0.568981 -0.249233 0 -1 0
55 4 1 -3.89678 0.978612 -0.86739 0 -1 0
56 4 1 -3.49052 1.66455 -1.38139 0 -1 0
57 4 2 -3.76154 1.97716 -0.524169 0 -1 0
58 4 2 -2.81001 1.55782 -0.523234 0 -1 0
59 4 2 -2.22844 -1.86413 -0.443159 0 0 0
60 4 2 -1.55807 -1.37097 -0.00873316 0 0 0
61 4 2 -0.988639 -1.83817 0.587364 0 0 0
62 4 2 -0.374249 -1.47712 -0.145086 0 0 0
63 4 2 -0.0120139 -2.036 -0.843798 0 0 0
64 4 2 0.89713 2.04632 -0.713652 0 -1 0
65 5 1 0.374928 1.81158 -1.83734 0 0 0
66 5 1 -0.501932 1.59049 1.96946 0 0 -1
67 5 1 -0.686976 0.636673 1.79089 0 0 -1
68 5 1 0.232109 0.410035 1.89219 0 0 -1
69 5 1 1.00973 0.531665 -1.77667 0 0 0
70 5 1 1.44963 1.37026 -1.75513 0 0 0
71 5 1 2.3464 0.9238 -1.29529 0 0 0
72 5 1 3.18576 0.708467 -1.55997 0 0 0
73 5 2 3.72486 1.15506 -0.866317 0 0 0
74 5 2 3.44216 0.605603 -0.146246 0 0 0
75 5 2 4.15761 0.000742762 -0.285681 0 0 0
76 5 2 4.19827 -0.689992 0.285147 0 0 0
77 5 2 5.10976 -0.788759 0.0823073 0 0 0
78 5 2 5.76698 -0.0375102 -0.00705729 0 0 0
79 5 2 -6.01329 -0.490131 0.530524 1 0 0
80 5 2 5.99009 -1.19241 -0.0413199 0 0 0
81 6 1 -4.7983 -1.2542 0.252069 0 1 0
82 6 1 -4.21223 -1.9908 0.403379 0 1 0
83 6 1 -3.34572 1.82842 0.791215 0 0 0
84 6 1 -3.00298 1.37313 1.54834 0 0 0
85 6 1 -2.49289 0.675683 1.12326 0 0 0
86 6 1 -1.59604 0.732587 0.620562 0 0 0
87 6 1 -0.768225 1.34651 0.66114 0 0 0
88 6 1 0.127434 1.32797 1.10201 0 0 0
89 6 2 0.269377 1.06035 0.239224 0 0 0
90 6 2 0.870439 0.499764 -0.384436 0 0 0
91 6 2 1.6061 1.05659 -0.213004 0 0 0
92 6 2 1.56215 1.8176 0.412099 0 0 0
93 6 2 1.82592 -1.61093 -0.120685 0 1 0
94 6 2 2.64417 -1.40605 0.360465 0 1 0
95 6 2 3.13029 -0.986091 1.03279 0 1 0
96 6 2 2.56699 -0.793026 1.75576 0 1 0
97 7 1 -5.123 -1.68061 -1.3307 0 -1 1
98 7 1 -5.53894 -0.972844 -0.876586 0 -1 1
99 7 1 -5.03909 -0.122403 -0.930901 0 -1 1
100 7 1 -5.68142 0.509365 -1.39594 0 -1 1
101 7 1 -5.7371 1.14972 -0.644726 0 -1 1
102 7 1 -5.86718 2.07637 -0.463418 0 -1 1
103 7 1 5.82044 2.04405 -1.09975 -1 -1 1
104 7 1 6.02507 -1.49117 -1.77853 -1 0 1
105 7 2 -5.70199 -1.97486 1.94968 0 0 0
106 7 2 -5.11397 -1.4157 1.44547 0 0 0
107 7 2 -4.16955 -1.24091 1.21918 0 0 0
108 7 2 -4.12991 -1.47505 2.12947 0 0 0
109 7 2 -4.45811 -0.615795 -1.70505 0 0 1
110 7 2 -3.51696 -0.352521 -1.72543 0 0 1
111 7 2 -3.28561 -0.578797 1.60202 0 0 0
112 7 2 -3.95651 0.076835 1.62187 0 0 0
113 8 1 4.53521 0.086372 -1.25338 0 -1 1
114 8 1 4.85731 1.07878 -1.29212 0 -1 1
115 8 1 5.78947 0.801 -1.40193 0 -1 1
116 8 1 5.45738 0.142776 -1.96729 0 -1 1
117 8 1 4.78277 0.599244 1.77193 0 -1 0
118 8 1 5.00289 1.52799 1.53074 0 -1 0
119 8 1 4.2132 1.4341 0.995333 0 -1 0
120 8 1 4.45229 -1.84352 1.11784 0 0 0
121 8 2 4.77738 -1.6915 2.09689 0 0 0
122 8 2 4.92591 -0.775765 -1.82495 0 0 1
123 8 2 4.34279 -0.449767 1.72383 0 0 0
124 8 2 3.97783 0.255993 1.14129 0 0 0
125 8 2 4.79687 0.245347 0.68407 0 0 0
126 8 2 5.62317 0.612869 0.900019 0 0 0
127 8 2 5.47137 1.14655 0.0705573 0 0 0
128 8 2 6.08418 1.73084 0.646171 0 0 0
ITEM: TIMESTEP
4200
ITEM: NUMBER OF ATOMS
128
ITEM: BOX BOUNDS pp pp pp
-6.2010977310080699e+00 6.2010977310080699e+00
-2.1200334123104558e+00 2.1200334123104558e+00
-2.1200334123104558e+00 2.1200334123104558e+00
ITEM: ATOMS id mol type x y z ix iy iz
1 1 1 -5.74129 -0.636971 -2.03034 0 0 1
2 1 1 -5.18586 -0.509976 1.46964 0 0 0
3 1 1 -4.64718 -0.443155 0.679447 0 0 0
4 1 1 -3.72795 -0.609113 0.268324 0 0 0
5 1 1 -3.97179 -0.820867 -0.655768 0 0 0
6 1 1 -3.08142 -0.679111 -1.02765 0 0 0
7 1 1 -2.42659 -0.0719193 -1.49425 0 0 0
8 1 1 -1.93426 0.474289 -2.10037 0 0 0
9 1 2 -2.05476 1.26668 -1.59241 0 0 0
10 1 2 -1.92512 1.27886 -0.649101 0 0 0
11 1 2 -1.10098 0.914096 -0.202027 0 0 0
12 1 2 -0.255133 0.536855 -0.336999 0 0 0
13 1 2 -0.115148 -0.129284 -0.985703 0 0 0
14 1 2 -0.878676 -0.564479 -0.751439 0 0 0
15 1 2 -1.46931 0.162521 -0.961962 0 0 0
16 1 2 -1.34186 -0.408874 -1.76815 0 0 0
17 2 1 -2.08829 1.84676 0.947301 0 -1 -1
18 2 1 -1.80063 -1.54194 1.18279 0 0 -1
19 2 1 -1.91835 -0.719307 1.70771 0 0 -1
20 2 1 -1.22704 -0.627022 0.991179 0 0 -1
21 2 1 -0.286205 -0.736789 0.796685 0 0 -1
22 2 1 0.687166 -0.516644 0.976605 0 0 -1
23 2 1 1.01335 -0.203716 0.114344 0 0 -1
24 2 1 1.84891 -0.48498 0.520632 0 0 -1
25 2 2 2.51962 0.128983 0.310065 0 0 -1
26 2 2 2.92837 0.976522 0.573838 0 0 -1
27 2 2 2.6165 0.716693 1.47559 0 0 -1
28 2 2 3.42658 1.32856 1.59383 0 0 -1
29 2 2 3.27545 2.09713 1.05332 0 0 -1
30 2 2 3.67635 -1.98971 1.9201 0 1 -1
31 2 2 3.27332 -1.7933 -1.45913 0 1 0
32 2 2 2.33 -2.10375 -1.68008 0 1 0
33 3 1 -2.62546 -1.59028 1.80496 0 1 -1
34 3 1 -1.74521 -1.59866 -1.96691 0 1 0
35 3 1 -0.993229 -1.55041 -1.36179 0 1 0
36 3 1 -0.699497 -1.20276 2.04751 0 1 -1
37 3 1 0.233149 -1.57153 1.77002 0 1 -1
38 3 1 0.785233 -1.65897 -1.67052 0 1 0
39 3 1 0.194944 -1.13426 -0.997541 0 1 0
40 3 1 0.95842 -0.538017 -0.879199 0 1 0
41 3 2 1.94959 -0.744532 -1.00741 0 1 0
42 3 2 2.66743 -0.796655 -1.66598 0 1 0
43 3 2 2.95555 -0.41444 -0.812286 0 1 0
44 3 2 3.91135 -0.673605 -0.877828 0 1 0
45 3 2 4.55528 -1.40106 -1.1874 0 1 0
46 3 2 4.16191 -1.70045 -0.298598 0 1 0
47 3 2 3.20119 -1.53546 -0.136462 0 1 0
48 3 2 3.25105 1.72757 -0.067723 0 0 0
49 4 1 -5.40218 0.909071 1.4634 0 -1 0
50 4 1 -5.12949 0.902378 0.518638 0 -1 0
51 4 1 -5.20938 1.38622 -0.305236 0 -1 0
52 4 1 -4.31739 1.04115 -0.236044 0 -1 0
53 4 1 -3.75089 0.91886 0.561959 0 -1 0
54 4 1 -2.90927 0.809073 0.0544085 0 -1 0
55 4 1 -2.96573 0.712072 -0.886246 0 -1 0
56 4 1 -3.50687 1.48463 -0.533433 0 -1 0
57 4 2 -3.22715 -1.78651 -0.54431 0 0 0
58 4 2 -2.47135 2.08199 0.0184456 0 -1 0
59 4 2 -2.02564 -1.80116 -0.755779 0 0 0
60 4 2 -1.78255 -1.37188 0.113504 0 0 0
61 4 2 -1.31246 2.0495 0.360726 0 -1 0
62 4 2 -0.751855 2.03167 -0.482295 0 -1 0
63 4 2 -0.0679858 1.99456 -1.08701 0 -1 0
64 4 2 0.645789 -2.07198 -0.424884 0 0 0
65 5 1 0.591388 1.72141 1.79938 0 0 -1
66 5 1 -0.330751 1.60706 -2.1239 0 0 0
67 5 1 0.139777 0.745506 -1.93531 0 0 0
68 5 1 0.632567 0.367103 1.548 0 0 -1
69 5 1 1.57871 0.445475 1.78559 0 0 -1
70 5 1 1.82326 0.402817 -1.54014 0 0 0
71 5 1 2.73751 0.349731 -1.81624 0 0 0
72 5 1 3.24852 0.912453 -1.13836 0 0 0
73 5 2 3.99763 1.17299 -0.470519 0 0 0
74 5 2 3.85889 0.406086 -0.0300057 0 0 0
75 5 2 3.48739 -0.441076 0.279199 0 0 0
76 5 2 4.41448 -0.770909 0.272737 0 0 0
77 5 2 5.20659 -0.252365 0.239265 0 0 0
78 5 2 5.66262 0.287737 -0.338431 0 0 0
79 5 2 -6.09191 -0.362771 -0.112758 1 0 0
80 5 2 -5.68081 -0.835367 0.616136 1 0 0
81 6 1 -4.2776 -2.13879 -0.237816 0 1 0
82 6 1 -4.34905 2.05235 0.737777 0 0 0
83 6 1 -3.49983 2.0696 1.18778 0 0 0
84 6 1 -2.90795 1.42397 1.52608 0 0 0
85 6 1 -2.53784 0.595546 1.09767 0 0 0
86 6 1 -1.55532 0.544752 1.03014 0 0 0
87 6 1 -0.815418 0.267637 0.575171 0 0 0
88 6 1 -0.303509 1.11675 0.463988 0 0 0
89 6 2 0.506122 0.670911 0.313653 0 0 0
90 6 2 1.18651 0.871877 -0.270575 0 0 0
91 6 2 1.55028 1.28156 0.569151 0 0 0
92 6 2 1.23609 2.02442 1.0588 0 0 0
93 6 2 1.62996 -1.88236 0.18994 0 1 0
94 6 2 2.45913 -1.56808 0.647276 0 1 0
95 6 2 2.45963 -1.33823 1.57002 0 1 0
96 6 2 1.98248 -0.488235 1.83033 0 1 0
97 7 1 -5.14611 -1.871 -0.913215 0 -1 1
98 7 1 -5.03242 -0.952306 -0.894705 0 -1 1
99 7 1 -5.02441 -0.23425 -0.259379 0 -1 1
100 7 1 -5.21892 0.276137 -1.03875 0 -1 1
101 7 1 -5.69238 1.07018 -1.47687 0 -1 1
102 7 1 -6.2865 1.63222 -0.969397 0 -1 1
103 7 1 6.00636 -1.68718 -1.0948 -1 0 1
104 7 1 6.14272 -2.12683 -1.91323 -1 0 1
105 7 2 -5.36788 1.82964 2.1344 0 -1 0
106 7 2 -5.49512 -1.77778 1.40301 0 0 0
107 7 2 -4.62975 -1.79378 1.81577 0 0 0
108 7 2 -4.24373 -1.56682 -1.54313 0 0 1
109 7 2 -4.25191 -0.626192 -1.70323 0 0 1
110 7 2 -3.58394 -1.06318 -2.14891 0 0 1
111 7 2 -3.56023 -0.24747 1.57592 0 0 0
112 7 2 -3.73076 0.577794 2.02766 0 0 0
113 8 1 4.62783 0.91036 -1.31712 0 -1 1
114 8 1 5.0184 1.77682 -1.33784 0 -1 1
115 8 1 5.65879 1.26494 -1.79719 0 -1 1
116 8 1 5.80082 0.463099 1.84885 0 -1 0
117 8 1 4.93001 0.774954 1.79408 0 -1 0
118 8 1 5.056 1.66686 1.43254 0 -1 0
119 8 1 4.36424 1.57446 0.7822 0 -1 0
120 8 1 4.4838 -1.72099 0.681483 0 0 0
121 8 2 4.95376 -1.2041 1.33287 0 0 0
122 8 2 4.72211 -0.501407 2.02287 0 0 0
123 8 2 3.81553 -0.717321 2.00415 0 0 0
124 8 2 3.64165 0.00614971 1.42402 0 0 0
125 8 2 4.36903 0.43957 0.815968 0 0 0
126 8 2 5.26506 0.76656 0.686342 0 0 0
127 8 2 5.23221 1.44646 0.0160041 0 0 0
128 8 2 6.14116 1.31172 0.110972 0 0 0
ITEM: TIMESTEP
4400
ITEM: NUMBER OF ATOMS
128
ITEM: BOX BOUNDS pp pp pp
-6.2010977310080699e+00 6.2010977310080699e+00
-2.1200334123104558e+00 2.1200334123104558e+00
-2.1200334123104558e+00 2.1200334123104558e+00
ITEM: ATOMS id mol type x y z ix iy iz
1 1 1 -5.22142 -0.894435 -1.93277 0 0 1
2 1 1 -5.10245 -0.0051624 1.94612 0 0 0
3 1 1 -5.02747 -0.361487 1.04756 0 0 0
4 1 1 -4.25544 -0.589392 0.36718 0 0 0
5 1 1 -3.55626 -0.477434 -0.276384 0 0 0
6 1 1 -3.00621 -0.255279 -1.0537 0 0 0
7 1 1 -2.62881 -0.0807742 -1.86588 0 0 0
8 1 1 -1.79205 0.354788 -1.74653 0 0 0
9 1 2 -1.79224 1.30343 -1.5021 0 0 0
10 1 2 -1.87871 1.38623 -0.54674 0 0 0
11 1 2 -1.45679 0.523876 -0.475505 0 0 0
12 1 2 -0.947698 0.493466 -1.25606 0 0 0
13 1 2 -0.163087 0.325981 -0.662308 0 0 0
14 1 2 -0.894848 -0.284487 -0.244308 0 0 0
15 1 2 -1.31137 -0.549189 -1.09521 0 0 0
16 1 2 -0.879287 -0.514053 -1.91292 0 0 0
17 2 1 -1.7579 1.97389 1.53204 0 -1 -1
18 2 1 -1.55201 -1.54491 0.93473 0 0 -1
19 2 1 -1.74946 -0.582101 1.0423 0 0 -1
20 2 1 -0.767024 -0.730373 0.991553 0 0 -1
21 2 1 0.042941 -1.21474 1.15262 0 0 -1
22 2 1 0.723087 -1.15537 0.537523 0 0 -1
23 2 1 1.02955 -0.32384 0.140041 0 0 -1
24 2 1 1.945 -0.324609 0.291863 0 0 -1
25 2 2 1.80237 0.50954 -0.155703 0 0 -1
26 2 2 2.67489 0.321335 0.112513 0 0 -1
27 2 2 2.83589 0.449262 1.10166 0 0 -1
28 2 2 3.16733 1.33488 1.45013 0 0 -1
29 2 2 2.90084 2.04149 0.87484 0 0 -1
30 2 2 3.23859 -1.51372 1.49473 0 1 -1
31 2 2 2.82745 -1.6709 -1.87198 0 1 0
32 2 2 3.52798 1.97198 -1.9515 0 0 0
33 3 1 -2.8774 -1.00044 2.08841 0 1 -1
34 3 1 -2.14406 -1.54997 -1.98709 0 1 0
35 3 1 -1.22364 -1.72649 -1.64855 0 1 0
36 3 1 -0.660513 -1.7758 1.81371 0 1 -1
37 3 1 -0.234728 -1.65803 -1.48541 0 1 0
38 3 1 0.673547 -1.72221 -1.7748 0 1 0
39 3 1 0.711725 -1.39251 -0.832453 0 1 0
40 3 1 1.04186 -0.783186 -1.5302 0 1 0
41 3 2 1.56114 -0.745819 -0.737122 0 1 0
42 3 2 2.22971 -0.449251 -1.32855 0 1 0
43 3 2 2.85765 -0.656202 -0.61838 0 1 0
44 3 2 3.55865 -0.818475 -1.16923 0 1 0
45 3 2 4.02151 -1.61261 -1.44652 0 1 0
46 3 2 3.84861 -1.5514 -0.541131 0 1 0
47 3 2 3.05463 -1.54081 -0.0377312 0 1 0
48 3 2 3.29504 1.78817 -0.172665 0 0 0
49 4 1 -5.45291 0.649294 0.969222 0 -1 0
50 4 1 -5.6872 0.625165 0.0399458 0 -1 0
51 4 1 -4.89975 1.16642 0.0301808 0 -1 0
52 4 1 -4.20212 1.12175 -0.663227 0 -1 0
53 4 1 -3.89071 0.598136 0.129219 0 -1 0
54 4 1 -2.91588 0.434307 0.0829235 0 -1 0
55 4 1 -3.06369 1.06951 -0.636821 0 -1 0
56 4 1 -3.16274 1.86503 -1.11822 0 -1 0
57 4 2 -2.98547 -1.63126 -0.61205 0 0 0
58 4 2 -2.40137 -1.3517 0.0945044 0 0 0
59 4 2 -1.8811 -1.71225 -0.573451 0 0 0
60 4 2 -1.16919 -1.34786 -0.133901 0 0 0
61 4 2 -1.01845 1.9074 -0.0637507 0 -1 0
62 4 2 -0.812867 1.44196 -0.883313 0 -1 0
63 4 2 0.0573178 1.66204 -0.60661 0 -1 0
64 4 2 0.923969 1.94648 -0.321995 0 -1 0
65 5 1 0.515248 1.4492 1.50999 0 0 -1
66 5 1 0.219634 0.736951 2.00418 0 0 -1
67 5 1 0.632564 0.935298 -1.38897 0 0 0
68 5 1 1.1078 0.319337 -2.02174 0 0 0
69 5 1 1.32673 1.28228 2.03094 0 0 -1
70 5 1 2.20514 0.754775 -2.03056 0 0 0
71 5 1 2.99651 0.828436 -1.61031 0 0 0
72 5 1 2.51894 1.14674 -0.825569 0 0 0
73 5 2 3.50804 0.728678 -0.813134 0 0 0
74 5 2 3.96971 -0.0455181 -0.361143 0 0 0
75 5 2 3.53868 -0.565305 0.318791 0 0 0
76 5 2 4.37036 -0.819913 0.630078 0 0 0
77 5 2 5.13057 -0.268778 0.212899 0 0 0
78 5 2 5.26495 -0.0892726 -0.684032 0 0 0
79 5 2 6.08411 -0.610396 -0.559971 0 0 0
80 5 2 6.17978 -0.235601 0.307211 0 0 0
81 6 1 -3.88902 -1.93405 -0.0219872 0 1 0
82 6 1 -3.82481 1.92948 0.862867 0 0 0
83 6 1 -3.76905 -2.13367 1.81066 0 1 0
84 6 1 -2.81241 1.72664 1.79534 0 0 0
85 6 1 -2.34313 0.948402 1.53748 0 0 0
86 6 1 -1.67293 0.507223 0.967599 0 0 0
87 6 1 -0.698101 0.492819 0.823957 0 0 0
88 6 1 -0.484195 1.39799 1.0495 0 0 0
89 6 2 0.291583 1.40401 0.465366 0 0 0
90 6 2 1.16458 1.1771 0.610031 0 0 0
91 6 2 1.9314 1.60072 0.998426 0 0 0
92 6 2 1.21089 -1.96829 0.981084 0 1 0
93 6 2 2.00249 -1.74044 0.373205 0 1 0
94 6 2 2.2696 -1.27527 1.1312 0 1 0
95 6 2 1.86457 -1.78448 1.90633 0 1 0
96 6 2 1.30052 -1.03857 1.67107 0 1 0
97 7 1 -5.06552 -1.76022 -0.561257 0 -1 1
98 7 1 -4.79885 -0.867546 -0.787219 0 -1 1
99 7 1 -4.94347 -0.118507 -0.241587 0 -1 1
100 7 1 -5.37728 0.0735874 -1.04968 0 -1 1
101 7 1 -6.09613 0.668669 -0.922526 0 -1 1
102 7 1 -5.903 1.58804 -0.764313 0 -1 1
103 7 1 -6.12768 -1.67862 -0.977461 0 0 1
104 7 1 -5.79338 -1.8237 -1.86507 0 0 1
105 7 2 -5.40871 1.56341 -2.04908 0 -1 1
106 7 2 -5.19833 1.76858 1.2627 0 -1 0
107 7 2 -4.81682 -1.8455 1.82821 0 0 0
108 7 2 -4.40122 -1.90817 -1.55793 0 0 1
109 7 2 -3.80564 -1.12434 -1.53576 0 0 1
110 7 2 -3.8617 -1.02825 1.7192 0 0 0
111 7 2 -3.53783 -0.0739987 1.76509 0 0 0
112 7 2 -3.87248 0.291409 -1.67267 0 0 1
113 8 1 4.60333 1.10722 -1.04094 0 -1 1
114 8 1 4.89641 1.77082 -1.62484 0 -1 1
115 8 1 5.74358 1.52066 -1.97161 0 -1 1
116 8 1 5.82903 0.931907 1.51417 0 -1 0
117 8 1 4.96508 0.974538 1.92616 0 -1 0
118 8 1 5.07489 1.75493 1.37971 0 -1 0
119 8 1 4.24881 1.91176 0.874208 0 -1 0
120 8 1 5.01503 -1.68436 0.741706 0 0 0
121 8 2 5.60053 -0.989602 1.06505 0 0 0
122 8 2 4.83378 -0.864925 1.70674 0 0 0
123 8 2 3.95895 -0.49336 1.67299 0 0 0
124 8 2 4.32247 0.336669 1.41793 0 0 0
125 8 2 3.8869 0.702526 0.615046 0 0 0
126 8 2 4.68003 0.708684 0.125536 0 0 0
127 8 2 5.22507 1.41247 -0.182961 0 0 0
128 8 2 5.88643 1.15138 0.476857 0 0 0
ITEM: TIMESTEP
4600
ITEM: NUMBER OF ATOMS
128
ITEM: BOX BOUNDS pp pp pp
-6.2010977310080699e+00 6.2010977310080699e+00
-2.1200334123104558e+00 2.1200334123104558e+00
-2.1200334123104558e+00 2.1200334123104558e+00
ITEM: ATOMS id mol type x y z ix iy iz
1 1 1 -5.59106 -0.239248 2.05317 0 0 0
2 1 1 -4.90873 0.211867 1.51285 0 0 0
3 1 1 -4.287 -0.385933 1.08012 0 0 0
4 1 1 -3.78245 -0.459701 0.33291 0 0 0
5 1 1 -3.60361 -0.99306 -0.506648 0 0 0
6 1 1 -2.90204 -0.632319 -1.09095 0 0 0
7 1 1 -3.15298 0.228127 -1.57628 0 0 0
8 1 1 -2.23903 0.31356 -1.89657 0 0 0
9 1 2 -2.11789 1.16928 -1.60828 0 0 0
10 1 2 -1.67814 1.05861 -0.756879 0 0 0
11 1 2 -1.44297 0.270768 -1.2422 0 0 0
12 1 2 -0.61541 0.661668 -0.899528 0 0 0
13 1 2 -0.666214 0.384256 -0.0300545 0 0 0
14 1 2 -0.288273 -0.424835 -0.441412 0 0 0
15 1 2 -0.786713 -0.593945 -1.22319 0 0 0
16 1 2 -0.887187 -0.393783 2.05303 0 0 -1
17 2 1 -1.60327 1.7884 1.43225 0 -1 -1
18 2 1 -1.65362 -1.40695 1.23541 0 0 -1
19 2 1 -1.41594 -0.499164 0.908278 0 0 -1
20 2 1 -0.640005 -0.982872 1.10717 0 0 -1
21 2 1 0.097232 -1.59892 1.09226 0 0 -1
22 2 1 0.224484 -1.14571 0.277569 0 0 -1
23 2 1 0.0920126 -0.346053 0.952247 0 0 -1
24 2 1 1.05437 -0.279473 0.717512 0 0 -1
25 2 2 1.2061 0.182094 -0.127863 0 0 -1
26 2 2 2.11019 0.511808 0.103892 0 0 -1
27 2 2 2.54532 0.350484 0.885286 0 0 -1
28 2 2 2.8035 1.34122 0.756878 0 0 -1
29 2 2 3.28475 -2.08535 0.785232 0 1 -1
30 2 2 3.16859 -1.25556 1.30711 0 1 -1
31 2 2 3.0568 -2.04262 1.86255 0 1 -1
32 2 2 3.8288 1.64038 1.74769 0 0 -1
33 3 1 -2.84513 -1.02803 1.63023 0 1 -1
34 3 1 -2.49672 -1.42808 -1.72042 0 1 0
35 3 1 -1.57441 -1.43189 -1.96901 0 1 0
36 3 1 -0.78294 -1.89345 -1.84805 0 1 0
37 3 1 0.0387786 -1.40617 -1.94302 0 1 0
38 3 1 0.496532 -1.70518 -1.20535 0 1 0
39 3 1 1.1741 -1.47971 -0.530745 0 1 0
40 3 1 1.11496 -0.846077 -1.21978 0 1 0
41 3 2 1.90853 -0.496392 -0.720243 0 1 0
42 3 2 2.10465 -0.274418 -1.61978 0 1 0
43 3 2 3.1238 -0.121068 -1.36598 0 1 0
44 3 2 3.66403 -0.637739 -1.99476 0 1 0
45 3 2 3.81446 -1.51544 -1.50436 0 1 0
46 3 2 3.81673 -1.60294 -0.519864 0 1 0
47 3 2 2.82466 -1.65869 -0.614821 0 1 0
48 3 2 3.14678 1.80589 -0.196149 0 0 0
49 4 1 -5.92777 0.822945 1.0397 0 -1 0
50 4 1 -6.02899 0.764135 0.0848172 0 -1 0
51 4 1 -5.5472 1.54669 0.261934 0 -1 0
52 4 1 -4.64897 1.27968 0.100935 0 -1 0
53 4 1 -3.78199 1.00175 0.330643 0 -1 0
54 4 1 -2.84799 1.26464 0.371679 0 -1 0
55 4 1 -2.9064 1.18868 -0.586398 0 -1 0
56 4 1 -3.21602 1.64377 -1.36371 0 -1 0
57 4 2 -2.90006 -1.96019 -0.735587 0 0 0
58 4 2 -2.50284 -1.22244 -0.339144 0 0 0
59 4 2 -1.53963 -1.20729 -0.481271 0 0 0
60 4 2 -0.916275 -1.76382 -0.102547 0 0 0
61 4 2 -0.416358 1.69365 -0.210931 0 -1 0
62 4 2 -0.0859993 1.59218 -1.073 0 -1 0
63 4 2 0.662213 1.38633 -0.477554 0 -1 0
64 4 2 1.55283 1.232 -0.398778 0 -1 0
65 5 1 0.0513343 0.917025 1.77483 0 0 -1
66 5 1 -0.0416337 0.134834 -1.88771 0 0 0
67 5 1 0.479179 0.822687 -1.45359 0 0 0
68 5 1 1.22009 0.208151 -1.16077 0 0 0
69 5 1 1.82339 0.739621 -1.63457 0 0 0
70 5 1 2.4981 0.5079 1.98278 0 0 -1
71 5 1 3.30963 0.852567 -1.91137 0 0 0
72 5 1 3.17416 1.57056 -1.18545 0 0 0
73 5 2 3.58359 0.801858 -0.606039 0 0 0
74 5 2 4.04181 -0.0120977 -0.780125 0 0 0
75 5 2 3.61345 -0.612851 -0.230258 0 0 0
76 5 2 4.038 -1.18015 0.463519 0 0 0
77 5 2 4.832 -0.722164 0.0559526 0 0 0
78 5 2 5.06403 -0.520197 -0.850753 0 0 0
79 5 2 5.93372 -0.913078 -0.69307 0 0 0
80 5 2 6.04713 -0.47474 0.192316 0 0 0
81 6 1 -3.75135 -1.66869 0.42981 0 1 0
82 6 1 -3.27677 1.97172 0.972488 0 0 0
83 6 1 -3.60821 1.35438 1.6884 0 0 0
84 6 1 -2.73538 1.6956 1.83548 0 0 0
85 6 1 -2.42764 0.858912 1.4733 0 0 0
86 6 1 -1.7442 0.914881 0.763367 0 0 0
87 6 1 -0.85436 0.912369 1.0604 0 0 0
88 6 1 -0.510036 1.7992 1.11365 0 0 0
89 6 2 0.424779 1.72585 0.667237 0 0 0
90 6 2 0.576384 0.832838 0.980627 0 0 0
91 6 2 1.10842 1.39593 1.45892 0 0 0
92 6 2 1.61947 1.98077 0.921949 0 0 0
93 6 2 1.99829 -1.40827 0.767714 0 1 0
94 6 2 1.86771 -0.79782 1.51787 0 1 0
95 6 2 1.67447 -1.72186 1.91769 0 1 0
96 6 2 0.889067 -1.16246 1.7905 0 1 0
97 7 1 -4.75521 -1.49914 0.0186585 0 -1 1
98 7 1 -5.22964 -0.626385 -0.023404 0 -1 1
99 7 1 -5.26805 0.004763 -0.712829 0 -1 1
100 7 1 -6.12498 0.164652 -1.11903 0 -1 1
101 7 1 -5.95005 1.13768 -1.33281 0 -1 1
102 7 1 6.12732 1.85315 -0.808063 -1 -1 1
103 7 1 -5.79434 -1.63529 -1.22169 0 0 1
104 7 1 -5.73405 2.05017 -2.01018 0 -1 1
105 7 2 -5.29503 1.30793 1.80443 0 -1 0
106 7 2 -4.65784 1.69875 1.15195 0 -1 0
107 7 2 -4.6471 -2.10755 1.98385 0 0 0
108 7 2 -4.43692 -1.65119 -1.41691 0 0 1
109 7 2 -3.58949 -1.64926 -1.80991 0 0 1
110 7 2 -3.97954 -1.05345 1.78487 0 0 0
111 7 2 -4.01816 -0.101787 2.01715 0 0 0
112 7 2 -4.12554 -0.116612 -1.26124 0 0 1
113 8 1 4.33382 1.44699 -1.41421 0 -1 1
114 8 1 5.08155 2.07455 -1.23347 0 -1 1
115 8 1 5.59083 1.56568 -1.83738 0 -1 1
116 8 1 5.74587 0.80704 1.88994 0 -1 0
117 8 1 4.87951 0.683711 -1.96858 0 -1 1
118 8 1 4.92474 1.35618 1.52751 0 -1 0
119 8 1 5.54038 -2.09083 1.57047 0 0 0
120 8 1 5.32616 -1.66051 0.70545 0 0 0
121 8 2 5.85609 -1.1351 1.33449 0 0 0
122 8 2 4.99821 -1.03162 1.75364 0 0 0
123 8 2 5.29575 -0.206557 1.43664 0 0 0
124 8 2 4.71638 0.414176 0.897368 0 0 0
125 8 2 4.01315 0.890748 0.424617 0 0 0
126 8 2 4.20892 1.85299 0.195065 0 0 0
127 8 2 5.25321 1.76547 -0.03426 0 0 0
128 8 2 5.51064 1.03709 0.630558 0 0 0
ITEM: TIMESTEP
4800
ITEM: NUMBER OF ATOMS
128
ITEM: BOX BOUNDS pp pp pp
-6.2010977310080699e+00 6.2010977310080699e+00
-2.1200334123104558e+00 2.1200334123104558e+00
-2.1200334123104558e+00 2.1200334123104558e+00
ITEM: ATOMS id mol type x y z ix iy iz
1 1 1 -5.75055 0.0974683 1.02927 0 0 0
2 1 1 -4.84329 0.141541 0.868587 0 0 0
3 1 1 -4.23292 0.20766 0.104787 0 0 0
4 1 1 -3.45193 -0.328617 0.213423 0 0 0
5 1 1 -3.40295 -1.03962 -0.397334 0 0 0
6 1 1 -3.77671 -0.316932 -0.923796 0 0 0
7 1 1 -2.87332 0.0873959 -0.882652 0 0 0
8 1 1 -2.32532 0.184821 -1.66795 0 0 0
9 1 2 -1.78331 0.947512 -2.02264 0 0 0
10 1 2 -1.88665 1.00955 -1.06705 0 0 0
11 1 2 -1.11539 0.407187 -0.952399 0 0 0
12 1 2 -0.206885 0.610788 -0.543566 0 0 0
13 1 2 -0.820244 0.271676 0.149023 0 0 0
14 1 2 -0.531009 -0.390654 -0.468553 0 0 0
15 1 2 -0.632201 -0.734373 -1.33632 0 0 0
16 1 2 -1.16639 -0.65132 2.04012 0 0 -1
17 2 1 -1.94086 -2.12486 1.22985 0 0 -1
18 2 1 -2.08039 -1.57322 0.463673 0 0 -1
19 2 1 -1.45323 -1.02751 0.956288 0 0 -1
20 2 1 -0.681507 -1.54515 0.918807 0 0 -1
21 2 1 0.195112 -1.69644 1.38692 0 0 -1
22 2 1 0.609582 -1.13675 0.692445 0 0 -1
23 2 1 -0.0519008 -0.537378 0.799659 0 0 -1
24 2 1 0.296014 0.119157 1.39255 0 0 -1
25 2 2 0.888964 0.195419 0.636066 0 0 -1
26 2 2 1.81171 -0.0192064 0.429155 0 0 -1
27 2 2 2.62918 0.288332 0.727942 0 0 -1
28 2 2 3.17713 1.1348 0.75249 0 0 -1
29 2 2 2.7358 1.91146 0.274159 0 0 -1
30 2 2 3.12126 -1.65936 0.822169 0 1 -1
31 2 2 2.98536 1.97368 1.52317 0 0 -1
32 2 2 3.98269 1.82925 1.72258 0 0 -1
33 3 1 -2.79105 -0.631598 1.86714 0 1 -1
34 3 1 -2.4556 -1.47359 -2.07992 0 1 0
35 3 1 -1.47614 -1.65509 -1.9638 0 1 0
36 3 1 -0.837478 -1.79718 -1.23586 0 1 0
37 3 1 0.00125793 -1.61931 -1.73934 0 1 0
38 3 1 0.494324 -1.33478 -0.977671 0 1 0
39 3 1 1.20642 -1.8425 -0.530436 0 1 0
40 3 1 1.89529 -1.21231 -0.252218 0 1 0
41 3 2 2.58091 -0.57627 -0.53044 0 1 0
42 3 2 2.47795 -0.475024 -1.46125 0 1 0
43 3 2 3.38721 -0.413916 -1.81949 0 1 0
44 3 2 3.89506 -0.776797 1.64971 0 1 -1
45 3 2 3.43211 -1.52887 -2.11375 0 1 0
46 3 2 3.70558 -1.44148 -1.21243 0 1 0
47 3 2 3.12149 -1.77797 -0.585756 0 1 0
48 3 2 2.33105 2.04731 -1.0298 0 0 0
49 4 1 -6.153 1.16577 0.954866 0 -1 0
50 4 1 -5.76789 0.822227 0.144784 0 -1 0
51 4 1 -5.57003 1.76488 0.00903643 0 -1 0
52 4 1 -4.94547 1.4143 0.614401 0 -1 0
53 4 1 -4.05977 1.47726 0.33581 0 -1 0
54 4 1 -3.2922 1.93427 0.0913789 0 -1 0
55 4 1 -3.11034 1.14873 -0.451712 0 -1 0
56 4 1 -3.62512 1.29369 -1.23136 0 -1 0
57 4 2 -2.86327 1.94019 -1.1115 0 -1 0
58 4 2 -2.2364 -1.64657 -0.750034 0 0 0
59 4 2 -1.7287 -0.848474 -0.463317 0 0 0
60 4 2 -1.12871 -1.56437 -0.159997 0 0 0
61 4 2 -0.435989 2.0869 -0.397386 0 -1 0
62 4 2 0.340191 1.5771 -0.496728 0 -1 0
63 4 2 1.00098 0.893141 -0.434031 0 -1 0
64 4 2 1.26145 1.45898 -1.14353 0 -1 0
65 5 1 -0.37854 0.299932 -1.78997 0 0 0
66 5 1 0.297279 -0.172413 -1.32912 0 0 0
67 5 1 0.598056 0.687162 -1.56739 0 0 0
68 5 1 1.50115 0.245273 -1.34411 0 0 0
69 5 1 1.93785 0.825658 -1.90809 0 0 0
70 5 1 2.77434 1.0535 1.95204 0 0 -1
71 5 1 3.67467 0.752727 -2.04711 0 0 0
72 5 1 3.56695 1.56454 -1.60591 0 0 0
73 5 2 3.59203 1.18428 -0.723415 0 0 0
74 5 2 3.40152 0.308232 -0.643372 0 0 0
75 5 2 3.44842 -0.274576 0.115005 0 0 0
76 5 2 4.30568 -0.712393 -0.0978388 0 0 0
77 5 2 4.78148 -1.5057 -0.256596 0 0 0
78 5 2 4.83305 -0.768131 -0.945965 0 0 0
79 5 2 5.80083 -1.10079 -0.914787 0 0 0
80 5 2 5.96908 -0.958789 0.0390858 0 0 0
81 6 1 -3.65517 -1.34747 0.971359 0 1 0
82 6 1 -3.08425 -2.0317 1.35802 0 1 0
83 6 1 -3.63052 1.42495 1.42812 0 0 0
84 6 1 -2.83016 1.26312 1.94782 0 0 0
85 6 1 -2.54129 0.639334 1.25191 0 0 0
86 6 1 -1.96885 1.16146 0.731533 0 0 0
87 6 1 -1.20175 1.19669 1.29935 0 0 0
88 6 1 -0.398744 1.35603 0.82001 0 0 0
89 6 2 0.294875 1.88158 0.486379 0 0 0
90 6 2 0.976738 1.22433 0.539717 0 0 0
91 6 2 1.13747 1.15343 1.5091 0 0 0
92 6 2 1.41129 2.03463 1.68233 0 0 0
93 6 2 2.02855 -1.81915 1.10024 0 1 0
94 6 2 2.43099 -1.04929 1.66055 0 1 0
95 6 2 1.83931 -1.41653 -1.90998 0 1 1
96 6 2 1.09054 -0.895144 2.01651 0 1 0
97 7 1 -4.64142 -1.00776 0.291885 0 -1 1
98 7 1 -5.23107 -0.359882 -0.175342 0 -1 1
99 7 1 -6.0002 -0.287805 -0.730182 0 -1 1
100 7 1 -5.83993 0.640162 -1.02762 0 -1 1
101 7 1 -5.03115 1.09695 -0.689631 0 -1 1
102 7 1 -5.2861 1.98213 -1.0552 0 -1 1
103 7 1 -6.01185 -1.85964 -1.55773 0 0 1
104 7 1 -5.56019 1.7354 2.16622 0 -1 0
105 7 2 -5.3068 0.901461 1.6566 0 -1 0
106 7 2 -4.69483 1.64458 1.74888 0 -1 0
107 7 2 -4.67454 -1.77254 -2.03533 0 0 1
108 7 2 -4.4659 -1.74974 -1.04346 0 0 1
109 7 2 -3.71429 -1.25021 -1.36523 0 0 1
110 7 2 -4.03088 -0.972968 2.04546 0 0 0
111 7 2 -4.72512 -0.559881 -1.64902 0 0 1
112 7 2 -4.91445 0.147189 -0.966492 0 0 1
113 8 1 4.87763 -1.5586 -1.85441 0 0 1
114 8 1 4.87548 1.98634 -1.2633 0 -1 1
115 8 1 5.20603 1.07256 -1.15294 0 -1 1
116 8 1 5.50977 0.38633 -1.78663 0 -1 1
117 8 1 4.74092 0.858176 2.1191 0 -1 0
118 8 1 4.89313 1.54112 1.37344 0 -1 0
119 8 1 5.72599 1.55324 1.79245 0 -1 0
120 8 1 5.51686 -1.76292 1.57205 0 0 0
121 8 2 6.12412 -1.05422 1.3217 0 0 0
122 8 2 5.29956 -0.524798 1.42283 0 0 0
123 8 2 5.26969 0.103466 0.665188 0 0 0
124 8 2 4.46036 0.337634 0.304432 0 0 0
125 8 2 4.20062 1.16929 0.681012 0 0 0
126 8 2 4.46879 2.12062 0.588277 0 0 0
127 8 2 5.27471 1.74762 0.309909 0 0 0
128 8 2 5.60223 0.927062 -0.138681 0 0 0
ITEM: TIMESTEP
5000
ITEM: NUMBER OF ATOMS
128
ITEM: BOX BOUNDS pp pp pp
-6.2010977310080699e+00 6.2010977310080699e+00
-2.1200334123104558e+00 2.1200334123104558e+00
-2.1200334123104558e+00 2.1200334123104558e+00
ITEM: ATOMS id mol type x y z ix iy iz
1 1 1 -4.85749 0.0160506 0.990058 0 0 0
2 1 1 -4.77831 0.892311 0.465307 0 0 0
3 1 1 -3.85145 1.2107 0.496263 0 0 0
4 1 1 -3.86345 0.343224 0.9597 0 0 0
5 1 1 -3.69967 -0.536778 0.697544 0 0 0
6 1 1 -3.2774 0.0565275 0.00297912 0 0 0
7 1 1 -2.67869 -0.211579 -0.753197 0 0 0
8 1 1 -1.93924 0.200896 -1.25774 0 0 0
9 1 2 -1.35685 0.422618 -2.05419 0 0 0
10 1 2 -1.52709 1.21058 -1.4789 0 0 0
11 1 2 -0.961836 1.20665 -0.69416 0 0 0
12 1 2 -0.28926 0.496653 -0.608836 0 0 0
13 1 2 -0.409352 -0.059109 0.230441 0 0 0
14 1 2 -1.21401 0.0807508 -0.381421 0 0 0
15 1 2 -1.1027 -0.689512 -0.923298 0 0 0
16 1 2 -0.738633 -1.07962 -1.79496 0 0 0
17 2 1 -2.40065 1.75869 1.35344 0 -1 -1
18 2 1 -2.21715 1.93446 0.393309 0 -1 -1
19 2 1 -1.50619 -1.61059 0.286549 0 0 -1
20 2 1 -0.930019 -1.64125 1.03057 0 0 -1
21 2 1 -0.213242 -1.68599 1.69611 0 0 -1
22 2 1 0.595963 -1.42432 1.32295 0 0 -1
23 2 1 0.000343238 -0.701682 1.14155 0 0 -1
24 2 1 -0.216813 0.116377 1.61749 0 0 -1
25 2 2 0.810636 0.23385 1.4699 0 0 -1
26 2 2 1.6217 -0.127669 1.05551 0 0 -1
27 2 2 2.51109 0.285409 0.842306 0 0 -1
28 2 2 2.06283 1.12367 0.631794 0 0 -1
29 2 2 2.1317 1.6485 -0.139347 0 0 -1
30 2 2 2.88847 -1.9993 0.0898435 0 1 -1
31 2 2 3.4563 -1.97351 0.804106 0 1 -1
32 2 2 3.87758 1.46644 0.99615 0 0 -1
33 3 1 -2.6116 -0.592185 1.98973 0 1 -1
34 3 1 -2.17801 -1.35888 1.64731 0 1 -1
35 3 1 -1.74692 -2.05893 -2.03408 0 1 0
36 3 1 -0.831199 -2.10035 -1.7789 0 1 0
37 3 1 -0.0790127 -1.97143 -1.13798 0 1 0
38 3 1 0.750264 -1.64511 -0.992212 0 1 0
39 3 1 1.52581 -1.26929 -0.574922 0 1 0
40 3 1 2.08668 -1.23217 0.25111 0 1 0
41 3 2 2.57041 -0.807533 -0.528439 0 1 0
42 3 2 3.11037 -0.332738 -1.06159 0 1 0
43 3 2 3.69672 -0.280956 -1.86588 0 1 0
44 3 2 3.85559 -0.562039 1.46023 0 1 -1
45 3 2 3.68828 -1.41705 1.93737 0 1 -1
46 3 2 3.13172 -1.47363 -1.44033 0 1 0
47 3 2 2.51445 2.06165 -1.36552 0 0 0
48 3 2 2.91607 1.98707 1.97503 0 0 -1
49 4 1 -6.0172 1.36313 0.848802 0 -1 0
50 4 1 -5.88727 1.68865 -0.0316342 0 -1 0
51 4 1 -5.85616 -1.79615 0.542429 0 0 0
52 4 1 -4.91845 -1.66804 0.414412 0 0 0
53 4 1 -4.10084 -1.84381 -0.0477941 0 0 0
54 4 1 -3.21054 2.00673 -0.149911 0 -1 0
55 4 1 -2.72034 1.2944 -0.584996 0 -1 0
56 4 1 -3.57263 1.43674 -0.988952 0 -1 0
57 4 2 -3.05054 2.05215 -1.45238 0 -1 0
58 4 2 -2.55045 -1.32244 -1.45494 0 0 0
59 4 2 -1.8855 -1.59149 -0.814804 0 0 0
60 4 2 -1.03787 -2.00695 -0.596297 0 0 0
61 4 2 -0.276242 -1.83519 -0.0216352 0 0 0
62 4 2 0.379739 1.66513 -0.167998 0 -1 0
63 4 2 1.16525 1.44639 -0.678991 0 -1 0
64 4 2 1.59217 1.76398 -1.50489 0 -1 0
65 5 1 -0.374094 0.263568 -1.56984 0 0 0
66 5 1 0.268928 -0.331322 -1.09338 0 0 0
67 5 1 1.02426 0.0233823 -1.60261 0 0 0
68 5 1 1.94529 -0.0448499 -1.81449 0 0 0
69 5 1 1.98404 0.888865 -1.83458 0 0 0
70 5 1 2.70803 0.847196 1.723 0 0 -1
71 5 1 3.64819 0.823683 2.00611 0 0 -1
72 5 1 3.36186 0.737313 -1.24945 0 0 0
73 5 2 3.20769 1.13371 -0.351722 0 0 0
74 5 2 3.07965 0.178195 -0.129954 0 0 0
75 5 2 3.7908 -0.127708 0.471694 0 0 0
76 5 2 3.79576 -1.07484 0.269997 0 0 0
77 5 2 4.15014 -1.24095 -0.59065 0 0 0
78 5 2 4.91302 -0.792288 -0.988913 0 0 0
79 5 2 5.82424 -1.12982 -1.13716 0 0 0
80 5 2 5.59614 -1.2442 -0.187917 0 0 0
81 6 1 -3.52518 -1.25923 1.49189 0 1 0
82 6 1 -3.63125 2.05731 1.16286 0 0 0
83 6 1 -3.25315 1.21164 1.46698 0 0 0
84 6 1 -2.57322 0.961204 -2.03792 0 0 1
85 6 1 -2.34057 0.548473 1.39877 0 0 0
86 6 1 -1.87291 0.713228 0.563221 0 0 0
87 6 1 -1.34843 1.48827 0.758362 0 0 0
88 6 1 -0.509024 1.32961 0.337951 0 0 0
89 6 2 0.0758802 1.85554 0.987887 0 0 0
90 6 2 1.01599 1.83478 0.789468 0 0 0
91 6 2 1.32971 1.32533 1.52869 0 0 0
92 6 2 0.898784 2.00856 2.06178 0 0 0
93 6 2 1.62122 -1.71121 1.64064 0 1 0
94 6 2 2.35726 -1.09011 1.63508 0 1 0
95 6 2 1.97342 -1.01233 -1.71042 0 1 1
96 6 2 1.09572 -1.06405 -1.89136 0 1 1
97 7 1 -5.029 -1.16467 -0.584273 0 -1 1
98 7 1 -5.8381 -0.694413 -0.674154 0 -1 1
99 7 1 -5.21517 0.0295032 -0.448944 0 -1 1
100 7 1 -5.3228 0.469699 -1.3395 0 -1 1
101 7 1 -4.78883 1.16709 -0.929468 0 -1 1
102 7 1 -5.18312 1.97698 -0.729522 0 -1 1
103 7 1 -5.95356 -1.9888 -1.19463 0 0 1
104 7 1 -5.57339 1.60933 -1.78899 0 -1 1
105 7 2 -4.94826 0.956668 2.0737 0 -1 0
106 7 2 -4.38246 1.58828 -1.76252 0 -1 1
107 7 2 -4.79357 -1.75131 -1.88418 0 0 1
108 7 2 -4.1016 -1.73655 -1.20948 0 0 1
109 7 2 -3.71267 -0.942107 -1.59227 0 0 1
110 7 2 -4.1646 -0.569062 1.87524 0 0 0
111 7 2 -5.06149 -0.568739 -2.00214 0 0 1
112 7 2 -4.53159 -0.206559 -1.20946 0 0 1
113 8 1 4.63968 -1.97084 2.05691 0 0 0
114 8 1 4.37952 1.58272 -1.56011 0 -1 1
115 8 1 5.19255 1.19979 -1.04307 0 -1 1
116 8 1 4.88543 0.383254 -1.46203 0 -1 1
117 8 1 5.00211 0.376714 1.77313 0 -1 0
118 8 1 5.49485 1.12882 1.56517 0 -1 0
119 8 1 5.76171 1.64509 -1.96883 0 -1 1
120 8 1 6.1215 -1.79899 1.89017 0 0 0
121 8 2 5.60962 -1.05268 1.41401 0 0 0
122 8 2 5.62888 -0.452069 0.627774 0 0 0
123 8 2 4.86694 0.0869171 0.384936 0 0 0
124 8 2 4.36289 0.298182 -0.372049 0 0 0
125 8 2 4.50773 1.132 0.0956667 0 0 0
126 8 2 4.53103 2.05898 0.384936 0 0 0
127 8 2 5.46886 1.83133 0.393307 0 0 0
128 8 2 5.52886 0.945493 0.357357 0 0 0
ITEM: TIMESTEP
5200
ITEM: NUMBER OF ATOMS
128
ITEM: BOX BOUNDS pp pp pp
-6.2010977310080699e+00 6.2010977310080699e+00
-2.1200334123104558e+00 2.1200334123104558e+00
-2.1200334123104558e+00 2.1200334123104558e+00
ITEM: ATOMS id mol type x y z ix iy iz
1 1 1 -5.37146 0.531831 1.28867 0 0 0
2 1 1 -4.78258 0.461532 0.506731 0 0 0
3 1 1 -4.13113 1.12957 0.443386 0 0 0
4 1 1 -3.78372 0.507616 1.06465 0 0 0
5 1 1 -3.29971 0.113189 0.245704 0 0 0
6 1 1 -2.46142 -0.286166 0.337968 0 0 0
7 1 1 -2.48636 0.293361 -0.463648 0 0 0
8 1 1 -2.8245 -0.381328 -1.12748 0 0 0
9 1 2 -2.06334 -0.12259 -1.70155 0 0 0
10 1 2 -1.40051 0.576974 -1.53673 0 0 0
11 1 2 -0.723025 0.616917 -0.8051 0 0 0
12 1 2 -0.00645144 0.823214 -0.231141 0 0 0
13 1 2 -0.23693 -0.14714 -0.307052 0 0 0
14 1 2 -1.14149 -0.111041 0.0413591 0 0 0
15 1 2 -1.00748 -0.918779 -0.467219 0 0 0
16 1 2 -0.401794 -1.12142 -1.19571 0 0 0
17 2 1 -2.00776 1.85948 1.10724 0 -1 -1
18 2 1 -2.34374 -1.97459 0.264443 0 0 -1
19 2 1 -1.71085 -1.24294 0.455069 0 0 -1
20 2 1 -0.938941 -1.48555 1.00419 0 0 -1
21 2 1 -0.513243 -1.12841 1.79323 0 0 -1
22 2 1 0.324627 -0.738439 1.42373 0 0 -1
23 2 1 -0.272135 -0.578228 0.775772 0 0 -1
24 2 1 -0.202259 0.223173 1.42491 0 0 -1
25 2 2 0.542692 0.0883291 1.99139 0 0 -1
26 2 2 1.30143 0.343803 1.40987 0 0 -1
27 2 2 1.8218 -0.0114649 0.623648 0 0 -1
28 2 2 1.68826 0.823063 0.260721 0 0 -1
29 2 2 1.70917 1.8216 0.348135 0 0 -1
30 2 2 2.48214 1.49279 0.754009 0 0 -1
31 2 2 3.20468 1.78238 0.263101 0 0 -1
32 2 2 3.74737 0.96213 0.375808 0 0 -1
33 3 1 -2.39783 -0.435236 1.34733 0 1 -1
34 3 1 -1.77967 -0.928163 1.87911 0 1 -1
35 3 1 -1.39507 -1.77987 2.0302 0 1 -1
36 3 1 -0.552312 -2.10856 -1.72117 0 1 0
37 3 1 0.310019 -2.0538 -1.40832 0 1 0
38 3 1 0.473588 -1.48366 -0.620571 0 1 0
39 3 1 1.17499 -0.900558 -0.222331 0 1 0
40 3 1 2.10989 -1.32712 -0.331962 0 1 0
41 3 2 2.8644 -0.988809 -0.723339 0 1 0
42 3 2 3.35654 -0.992385 -1.53518 0 1 0
43 3 2 3.95246 -0.246436 -1.7371 0 1 0
44 3 2 4.07513 -0.859942 1.7809 0 1 -1
45 3 2 3.58326 -1.69619 1.91091 0 1 -1
46 3 2 2.66981 -1.63546 -2.04291 0 1 0
47 3 2 3.17697 1.92828 -1.57226 0 0 0
48 3 2 3.38447 1.61027 1.74508 0 0 -1
49 4 1 -5.4991 1.93602 0.716508 0 -1 0
50 4 1 -5.88525 -1.52954 1.12131 0 0 0
51 4 1 -5.00768 -1.14663 1.03975 0 0 0
52 4 1 -4.49497 -0.644728 0.413872 0 0 0
53 4 1 -3.84546 -1.18247 -0.0639124 0 0 0
54 4 1 -3.63765 2.10559 0.0242308 0 -1 0
55 4 1 -3.35614 1.2463 -0.465688 0 -1 0
56 4 1 -2.83203 1.12351 -1.30377 0 -1 0
57 4 2 -3.31096 1.96602 -1.3238 0 -1 0
58 4 2 -2.75274 -1.45229 -1.44092 0 0 0
59 4 2 -2.04004 2.10274 -1.38278 0 -1 0
60 4 2 -1.39821 -1.97436 -0.728497 0 0 0
61 4 2 -0.542042 -1.98105 -0.304627 0 0 0
62 4 2 0.232325 1.87367 0.140619 0 -1 0
63 4 2 0.928753 1.44671 -0.233725 0 -1 0
64 4 2 1.32976 2.04249 -0.861657 0 -1 0
65 5 1 -0.244476 -0.061018 -1.64218 0 0 0
66 5 1 0.514384 -0.346872 -1.07144 0 0 0
67 5 1 1.40299 0.0254091 -1.10534 0 0 0
68 5 1 1.8827 0.448342 -1.84186 0 0 0
69 5 1 2.44107 1.22213 -1.81876 0 0 0
70 5 1 2.75437 0.685225 1.6876 0 0 -1
71 5 1 3.56549 0.754613 -1.91164 0 0 0
72 5 1 3.02424 0.317769 -1.28742 0 0 0
73 5 2 2.78182 0.879835 -0.544767 0 0 0
74 5 2 2.87706 -0.0603161 -0.342415 0 0 0
75 5 2 3.43154 -0.0910326 0.431512 0 0 0
76 5 2 3.29823 -1.05688 0.23837 0 0 0
77 5 2 4.24243 -0.892832 -0.00686659 0 0 0
78 5 2 4.70352 -1.17762 -0.802783 0 0 0
79 5 2 4.9812 -1.37564 -1.74835 0 0 0
80 5 2 5.7184 -1.2851 -1.14616 0 0 0
81 6 1 -2.62262 -1.58616 1.62896 0 1 0
82 6 1 -3.40262 -2.05349 1.44063 0 1 0
83 6 1 -3.10155 1.37932 1.84307 0 0 0
84 6 1 -2.17461 1.3659 2.04506 0 0 0
85 6 1 -2.22182 0.595561 1.48587 0 0 0
86 6 1 -1.81465 0.935737 0.631573 0 0 0
87 6 1 -1.07986 0.732614 1.15005 0 0 0
88 6 1 -0.891473 1.32354 0.465353 0 0 0
89 6 2 -0.457092 1.62907 1.24439 0 0 0
90 6 2 0.412989 1.21281 1.15517 0 0 0
91 6 2 1.311 1.32708 1.60244 0 0 0
92 6 2 0.945426 -2.01542 1.53229 0 1 0
93 6 2 1.77657 -1.76657 1.04881 0 1 0
94 6 2 1.65472 -1.45369 1.91155 0 1 0
95 6 2 1.71561 -1.11555 -1.44072 0 1 1
96 6 2 0.839698 -1.12804 -1.68922 0 1 1
97 7 1 -5.82578 -0.758688 -0.984705 0 -1 1
98 7 1 5.98692 -0.142354 -0.581317 -1 -1 1
99 7 1 -5.49832 0.0950042 -0.393555 0 -1 1
100 7 1 -5.13632 0.578802 -1.11955 0 -1 1
101 7 1 -4.46783 1.00512 -0.503474 0 -1 1
102 7 1 -4.60594 1.96411 -0.446969 0 -1 1
103 7 1 -5.09503 2.08754 -1.27398 0 -1 1
104 7 1 -5.78189 1.37721 -1.38546 0 -1 1
105 7 2 -5.27255 1.44097 2.05423 0 -1 0
106 7 2 -4.33158 1.5108 -1.89204 0 -1 1
107 7 2 -4.48604 -1.94018 1.81008 0 0 0
108 7 2 -4.02187 -1.36152 -1.87328 0 0 1
109 7 2 -3.59552 -0.715128 1.78455 0 0 0
110 7 2 -4.45413 -0.316052 1.66197 0 0 0
111 7 2 -4.21547 -0.220082 -1.63787 0 0 1
112 7 2 -4.15036 -0.123442 -0.718295 0 0 1
113 8 1 4.79575 1.83851 1.91962 0 -1 0
114 8 1 4.34162 1.81113 -1.4481 0 -1 1
115 8 1 5.08337 1.18424 -1.48807 0 -1 1
116 8 1 4.77776 0.744907 2.01116 0 -1 0
117 8 1 5.49356 0.17341 -2.01657 0 -1 1
118 8 1 5.94857 1.00612 -2.0768 0 -1 1
119 8 1 5.97948 1.7692 1.50942 0 -1 0
120 8 1 5.59594 -1.63807 1.66503 0 0 0
121 8 2 5.2748 -0.922169 1.18186 0 0 0
122 8 2 5.93685 -0.895701 0.517467 0 0 0
123 8 2 5.18076 -0.319802 0.18415 0 0 0
124 8 2 4.60215 0.0425375 -0.506449 0 0 0
125 8 2 4.75528 1.0705 -0.454396 0 0 0
126 8 2 4.85053 2.02704 -0.231614 0 0 0
127 8 2 5.04195 1.55561 0.603429 0 0 0
128 8 2 5.82428 0.944635 0.733358 0 0 0
ITEM: TIMESTEP
5400
ITEM: NUMBER OF ATOMS
128
ITEM: BOX BOUNDS pp pp pp
-6.2010977310080699e+00 6.2010977310080699e+00
-2.1200334123104558e+00 2.1200334123104558e+00
-2.1200334123104558e+00 2.1200334123104558e+00
ITEM: ATOMS id mol type x y z ix iy iz
1 1 1 -5.73303 0.53208 0.849149 0 0 0
2 1 1 -4.74013 0.499735 0.742836 0 0 0
3 1 1 -3.92277 0.740504 1.13514 0 0 0
4 1 1 -3.16716 0.0587624 1.03644 0 0 0
5 1 1 -2.92134 0.676819 0.386298 0 0 0
6 1 1 -2.69931 -0.142928 0.0398488 0 0 0
7 1 1 -2.52777 0.365866 -0.751572 0 0 0
8 1 1 -2.8296 -0.329945 -1.30522 0 0 0
9 1 2 -2.34571 0.0842878 -2.07152 0 0 0
10 1 2 -1.50332 0.402438 -1.69971 0 0 0
11 1 2 -1.0106 1.0977 -1.20752 0 0 0
12 1 2 -0.904162 0.545512 -0.40259 0 0 0
13 1 2 -0.564894 -0.367743 -0.214197 0 0 0
14 1 2 -1.4992 -0.44609 -0.198986 0 0 0
15 1 2 -1.27723 -1.40098 -0.221793 0 0 0
16 1 2 -0.827564 -1.82782 -1.0202 0 0 0
17 2 1 -1.77928 -2.03129 0.425888 0 0 -1
18 2 1 -2.56912 -1.50549 0.327259 0 0 -1
19 2 1 -1.81608 -1.0959 0.653083 0 0 -1
20 2 1 -0.929965 -0.861506 1.04431 0 0 -1
21 2 1 -0.150388 -1.01123 1.69148 0 0 -1
22 2 1 0.288686 -1.56734 0.881223 0 0 -1
23 2 1 0.476654 -0.657334 0.640824 0 0 -1
24 2 1 0.100372 0.143891 1.00823 0 0 -1
25 2 2 0.184956 0.129515 1.96557 0 0 -1
26 2 2 0.997231 0.105597 1.35643 0 0 -1
27 2 2 1.6846 -0.373668 0.786168 0 0 -1
28 2 2 1.66326 0.524249 0.540775 0 0 -1
29 2 2 1.86574 1.3767 0.921162 0 0 -1
30 2 2 2.76163 0.911688 0.706898 0 0 -1
31 2 2 2.74587 1.82665 0.464883 0 0 -1
32 2 2 3.49575 2.12939 -0.027386 0 0 -1
33 3 1 -1.83246 -0.370982 1.3185 0 1 -1
34 3 1 -1.40454 -0.77445 2.0821 0 1 -1
35 3 1 -1.2492 -1.65477 -2.04642 0 1 0
36 3 1 -0.376356 -2.01549 -1.90424 0 1 0
37 3 1 0.181372 -1.82173 -1.12652 0 1 0
38 3 1 0.652152 -1.43026 -0.340855 0 1 0
39 3 1 1.56772 -1.42426 -0.654719 0 1 0
40 3 1 2.49042 -1.23604 -0.404033 0 1 0
41 3 2 2.86666 -1.41163 -1.31803 0 1 0
42 3 2 3.65762 -0.877407 -1.02145 0 1 0
43 3 2 4.28605 -0.69915 -1.72647 0 1 0
44 3 2 4.02094 -0.411344 1.58437 0 1 -1
45 3 2 3.46596 -1.19548 1.81509 0 1 -1
46 3 2 2.77457 -1.9389 1.93265 0 1 -1
47 3 2 3.42997 1.65619 1.98384 0 0 -1
48 3 2 3.6977 1.87796 1.0813 0 0 -1
49 4 1 -5.47156 -1.14102 0.984063 0 0 0
50 4 1 -4.70408 -1.19761 1.61856 0 0 0
51 4 1 -4.42501 -0.494746 1.0611 0 0 0
52 4 1 -4.48019 -0.608817 0.126253 0 0 0
53 4 1 -3.59456 -0.961444 0.164388 0 0 0
54 4 1 -3.53218 -1.85142 -0.162343 0 0 0
55 4 1 -3.58734 1.49125 -0.463341 0 -1 0
56 4 1 -2.70886 1.63493 -0.778327 0 -1 0
57 4 2 -3.3335 1.92967 -1.45985 0 -1 0
58 4 2 -3.05298 -1.47842 -1.09323 0 0 0
59 4 2 -2.08397 -1.34988 -0.84647 0 0 0
60 4 2 -1.68259 1.97965 -0.734293 0 -1 0
61 4 2 -0.905399 1.74933 -0.130378 0 -1 0
62 4 2 0.000666152 1.63479 0.23541 0 -1 0
63 4 2 0.511551 1.54063 -0.572322 0 -1 0
64 4 2 1.42417 1.40123 -0.34888 0 -1 0
65 5 1 -0.442998 -0.145499 -1.42975 0 0 0
66 5 1 0.301977 0.295911 -0.972816 0 0 0
67 5 1 1.17404 0.126335 -0.708124 0 0 0
68 5 1 1.51932 0.720226 -1.33006 0 0 0
69 5 1 1.85111 1.21033 -2.08285 0 0 0
70 5 1 2.72707 0.7293 1.98736 0 0 -1
71 5 1 3.34109 0.396586 -1.63712 0 0 0
72 5 1 2.5494 -0.106104 -1.38637 0 0 0
73 5 2 2.87081 0.543163 -0.705943 0 0 0
74 5 2 2.92151 -0.116895 -0.0256854 0 0 0
75 5 2 2.76034 -0.644138 0.704089 0 0 0
76 5 2 3.39341 -0.954354 0.066638 0 0 0
77 5 2 4.25043 -1.39515 0.239454 0 0 0
78 5 2 4.61063 -1.99835 -0.432434 0 0 0
79 5 2 5.10068 -1.39085 -0.9957 0 0 0
80 5 2 5.26972 -1.80516 -1.89544 0 0 0
81 6 1 -2.75299 -1.53126 1.92983 0 1 0
82 6 1 -3.07249 -2.05219 1.18233 0 1 0
83 6 1 -3.1204 1.52413 1.83536 0 0 0
84 6 1 -2.13668 1.32498 1.93031 0 0 0
85 6 1 -2.19973 0.863837 1.11286 0 0 0
86 6 1 -1.79959 0.645799 0.232772 0 0 0
87 6 1 -1.00295 0.248391 0.689916 0 0 0
88 6 1 -1.01028 1.07874 1.1632 0 0 0
89 6 2 -0.411451 0.964532 1.9449 0 0 0
90 6 2 0.329529 1.60188 1.81559 0 0 0
91 6 2 1.03538 2.06902 1.40412 0 0 0
92 6 2 1.26873 -1.72513 0.596148 0 1 0
93 6 2 1.84279 -1.32981 1.18431 0 1 0
94 6 2 1.60439 -1.51006 2.06452 0 1 0
95 6 2 1.43999 -0.865615 -1.49947 0 1 1
96 6 2 0.428033 -0.728257 -1.39406 0 1 1
97 7 1 -6.11837 -0.365466 -1.45553 0 -1 1
98 7 1 5.66507 0.238622 -1.0233 -1 -1 1
99 7 1 -6.14578 0.955673 -1.25398 0 -1 1
100 7 1 -5.3543 0.349765 -1.06171 0 -1 1
101 7 1 -4.82964 0.773072 -0.377326 0 -1 1
102 7 1 -4.95344 1.5999 0.0140346 0 -1 1
103 7 1 -4.51954 -1.93122 -0.495553 0 0 1
104 7 1 -5.3842 -2.01927 -0.903122 0 0 1
105 7 2 -5.03537 1.86115 -1.69739 0 -1 1
106 7 2 -4.97463 1.31528 1.74289 0 -1 0
107 7 2 -4.22442 1.90512 1.69549 0 -1 0
108 7 2 -3.71941 -1.44374 1.71812 0 0 0
109 7 2 -3.32383 -0.629392 2.10424 0 0 0
110 7 2 -3.53126 0.289113 -1.92844 0 0 1
111 7 2 -4.00929 0.10817 -1.06433 0 0 1
112 7 2 -3.83841 0.379615 -0.148397 0 0 1
113 8 1 4.53427 1.45387 1.48512 0 -1 0
114 8 1 4.68249 1.50786 -1.79399 0 -1 1
115 8 1 4.62257 0.477086 -1.87065 0 -1 1
116 8 1 5.14923 -0.0662631 1.80077 0 -1 0
117 8 1 5.97131 0.393656 2.01498 0 -1 0
118 8 1 5.98281 1.25994 1.72402 0 -1 0
119 8 1 6.13606 -2.12734 1.431 0 0 0
120 8 1 5.18177 -1.83625 1.22415 0 0 0
121 8 2 5.80969 -1.08126 1.34993 0 0 0
122 8 2 5.74621 -1.34686 0.403822 0 0 0
123 8 2 5.42201 -0.458527 0.232842 0 0 0
124 8 2 4.74089 0.194263 -0.16418 0 0 0
125 8 2 4.77358 1.06802 -0.610606 0 0 0
126 8 2 5.70282 1.34958 -0.417881 0 0 0
127 8 2 5.31351 1.53946 0.483989 0 0 0
128 8 2 5.14009 0.679424 0.87476 0 0 0
ITEM: TIMESTEP
5600
ITEM: NUMBER OF ATOMS
128
ITEM: BOX BOUNDS pp pp pp
-6.2010977310080699e+00 6.2010977310080699e+00
-2.1200334123104558e+00 2.1200334123104558e+00
-2.1200334123104558e+00 2.1200334123104558e+00
ITEM: ATOMS id mol type x y z ix iy iz
1 1 1 -5.12033 0.296078 0.634262 0 0 0
2 1 1 -4.82919 0.845328 1.35379 0 0 0
3 1 1 -3.88793 0.726917 1.47878 0 0 0
4 1 1 -3.08682 0.053619 1.31735 0 0 0
5 1 1 -2.85182 0.902024 0.82528 0 0 0
6 1 1 -2.75764 0.299399 0.0493559 0 0 0
7 1 1 -2.32797 0.557343 -0.753213 0 0 0
8 1 1 -1.93453 -0.233922 -1.10008 0 0 0
9 1 2 -2.2066 0.233003 -1.88028 0 0 0
10 1 2 -1.50118 0.800486 -1.81999 0 0 0
11 1 2 -1.08916 0.956253 -1.01936 0 0 0
12 1 2 -1.00368 0.265387 -0.278922 0 0 0
13 1 2 -0.975181 -0.536268 -0.847495 0 0 0
14 1 2 -1.59087 -0.840386 -0.147798 0 0 0
15 1 2 -0.983962 -1.46786 0.221666 0 0 0
16 1 2 -0.767845 -1.65996 -0.67387 0 0 0
17 2 1 -2.63891 2.05416 -0.0409565 0 -1 -1
18 2 1 -2.18533 -1.64354 0.590362 0 0 -1
19 2 1 -1.47113 -1.3443 1.13215 0 0 -1
20 2 1 -0.666652 -0.855331 1.2571 0 0 -1
21 2 1 -0.33409 -1.73593 1.10722 0 0 -1
22 2 1 0.388379 -1.4573 0.441885 0 0 -1
23 2 1 0.833621 -0.705545 0.0546597 0 0 -1
24 2 1 0.0241737 -0.2037 0.297809 0 0 -1
25 2 2 0.596303 0.0859001 1.03405 0 0 -1
26 2 2 0.928175 0.129665 1.91852 0 0 -1
27 2 2 1.81704 -0.163404 1.71521 0 0 -1
28 2 2 1.64701 0.488033 1.05528 0 0 -1
29 2 2 1.86768 1.4661 1.02389 0 0 -1
30 2 2 2.62222 1.20118 0.541967 0 0 -1
31 2 2 2.77637 -2.10121 0.239038 0 1 -1
32 2 2 2.4214 1.82438 -0.646375 0 0 -1
33 3 1 -1.80743 -0.385421 1.64932 0 1 -1
34 3 1 -1.373 -1.04281 -1.982 0 1 0
35 3 1 -1.03204 -1.93582 -2.0782 0 1 0
36 3 1 -0.160733 -2.00905 -1.7576 0 1 0
37 3 1 0.661028 -1.91983 -1.23066 0 1 0
38 3 1 1.17401 -1.81612 -0.441288 0 1 0
39 3 1 1.71833 -1.89145 -1.17001 0 1 0
40 3 1 2.27222 -1.08933 -1.0729 0 1 0
41 3 2 3.1887 -1.10151 -0.866301 0 1 0
42 3 2 3.77893 -1.01055 -1.58387 0 1 0
43 3 2 4.41104 -1.14718 1.9944 0 1 -1
44 3 2 3.80256 -0.880191 1.25919 0 1 -1
45 3 2 2.99094 -1.0442 1.8523 0 1 -1
46 3 2 3.54358 -1.77629 2.08611 0 1 -1
47 3 2 3.49016 1.65029 1.59943 0 0 -1
48 3 2 3.77225 -1.99294 0.940468 0 1 -1
49 4 1 -5.84213 -0.261605 1.51017 0 0 0
50 4 1 -5.07948 -0.6747 1.83095 0 0 0
51 4 1 -4.46809 -0.826734 1.11844 0 0 0
52 4 1 -4.49912 -1.03771 0.134202 0 0 0
53 4 1 -3.67483 -0.747559 -0.250407 0 0 0
54 4 1 -3.54961 -1.48159 0.423348 0 0 0
55 4 1 -3.83226 -2.05126 -0.251398 0 0 0
56 4 1 -3.38419 1.71126 -0.939915 0 -1 0
57 4 2 -3.51288 -1.75861 -1.45669 0 0 0
58 4 2 -2.78807 -1.13615 -1.18509 0 0 0
59 4 2 -2.0247 -1.6461 -1.23986 0 0 0
60 4 2 -1.88849 1.67463 -1.03293 0 -1 0
61 4 2 -1.35085 1.81606 -0.244354 0 -1 0
62 4 2 -0.414152 1.54302 -0.126429 0 -1 0
63 4 2 0.452037 1.72881 -0.441441 0 -1 0
64 4 2 1.14027 1.38676 0.125063 0 -1 0
65 5 1 0.0153933 0.0987335 -1.98335 0 0 0
66 5 1 -0.0500289 0.469934 -1.1143 0 0 0
67 5 1 0.804429 0.371284 -0.678742 0 0 0
68 5 1 1.56905 0.97572 -0.818713 0 0 0
69 5 1 1.4089 1.32355 -1.68306 0 0 0
70 5 1 2.0927 0.611049 -1.95059 0 0 0
71 5 1 2.94633 0.226997 2.09265 0 0 -1
72 5 1 2.78352 -0.144671 -1.26521 0 0 0
73 5 2 2.69453 0.374806 -0.409069 0 0 0
74 5 2 3.34699 -0.210677 -0.0112532 0 0 0
75 5 2 2.69371 -0.932029 0.415372 0 0 0
76 5 2 3.61132 -1.18452 0.340573 0 0 0
77 5 2 4.5755 -1.10718 0.146907 0 0 0
78 5 2 4.60305 -2.00969 -0.141476 0 0 0
79 5 2 5.48746 -2.04319 -0.524063 0 0 0
80 5 2 4.918 -2.02721 -1.40872 0 0 0
81 6 1 -2.20882 -1.8185 1.90898 0 1 0
82 6 1 -3.0351 -2.08276 1.41713 0 1 0
83 6 1 -3.09714 1.27553 1.88351 0 0 0
84 6 1 -2.12109 1.28513 1.72829 0 0 0
85 6 1 -1.49773 1.63176 1.04818 0 0 0
86 6 1 -1.75448 0.867965 0.536868 0 0 0
87 6 1 -1.02676 0.322761 0.900955 0 0 0
88 6 1 -0.49136 0.726221 1.54146 0 0 0
89 6 2 -0.253918 1.18787 -1.84824 0 0 1
90 6 2 0.502343 1.31204 1.69904 0 0 0
91 6 2 0.930242 1.97648 1.16179 0 0 0
92 6 2 1.32852 -1.42974 0.87291 0 1 0
93 6 2 2.20697 -1.80226 1.15963 0 1 0
94 6 2 1.79691 -1.29954 1.85745 0 1 0
95 6 2 1.08891 -0.941753 -1.75538 0 1 1
96 6 2 0.179064 -0.844664 -1.31189 0 1 1
97 7 1 -5.93791 -0.248772 -1.06136 0 -1 1
98 7 1 5.87613 0.328424 -1.59009 -1 -1 1
99 7 1 -5.58936 0.623854 -1.53991 0 -1 1
100 7 1 -6.08818 0.820376 -0.722568 0 -1 1
101 7 1 -5.11931 0.761326 -0.473515 0 -1 1
102 7 1 -4.94559 1.64076 -0.169602 0 -1 1
103 7 1 -5.61041 -1.89728 -0.306106 0 0 1
104 7 1 -4.82369 -1.59408 -0.832984 0 0 1
105 7 2 -5.32908 1.88878 -1.17802 0 -1 1
106 7 2 -5.05015 -1.87888 -1.93105 0 0 1
107 7 2 -4.30078 2.13541 1.73433 0 -1 0
108 7 2 -3.82891 -1.30278 1.84933 0 0 0
109 7 2 -3.83606 -0.391197 2.03533 0 0 0
110 7 2 -4.17063 0.0820772 -1.44142 0 0 1
111 7 2 -3.85234 0.531457 -0.621336 0 0 1
112 7 2 -4.02953 0.212739 0.210428 0 0 1
113 8 1 5.12023 1.64812 1.51405 0 -1 0
114 8 1 5.05199 0.990272 -2.0948 0 -1 1
115 8 1 4.76982 0.109459 -1.77709 0 -1 1
116 8 1 5.39977 -0.46226 2.06596 0 -1 0
117 8 1 5.52722 -0.00291339 1.20465 0 -1 0
118 8 1 5.89932 0.884192 1.22165 0 -1 0
119 8 1 6.0688 1.82411 1.09368 0 -1 0
120 8 1 5.96764 -1.53925 1.5422 0 0 0
121 8 2 5.63825 -1.31072 0.669796 0 0 0
122 8 2 5.99396 -0.714581 0.0361053 0 0 0
123 8 2 5.38047 -0.44123 -0.64398 0 0 0
124 8 2 4.63065 0.151899 -0.827599 0 0 0
125 8 2 4.65705 1.03817 -0.485446 0 0 0
126 8 2 5.2608 1.43887 0.150397 0 0 0
127 8 2 5.25666 0.451251 -0.008655 0 0 0
128 8 2 4.94237 0.779869 0.796776 0 0 0
ITEM: TIMESTEP
5800
ITEM: NUMBER OF ATOMS
128
ITEM: BOX BOUNDS pp pp pp
-6.2010977310080699e+00 6.2010977310080699e+00
-2.1200334123104558e+00 2.1200334123104558e+00
-2.1200334123104558e+00 2.1200334123104558e+00
ITEM: ATOMS id mol type x y z ix iy iz
1 1 1 -4.98221 0.812129 0.763501 0 0 0
2 1 1 -4.88045 1.42509 1.4766 0 0 0
3 1 1 -4.45703 0.704205 1.92472 0 0 0
4 1 1 -3.47139 0.576274 1.52457 0 0 0
5 1 1 -3.554 1.04456 0.693765 0 0 0
6 1 1 -2.63554 0.845199 0.408024 0 0 0
7 1 1 -2.35107 0.495735 -0.441622 0 0 0
8 1 1 -2.31242 0.129728 -1.30534 0 0 0
9 1 2 -1.64301 0.299942 -2.01929 0 0 0
10 1 2 -1.03878 0.933519 -1.64373 0 0 0
11 1 2 -1.25797 0.544183 -0.790332 0 0 0
12 1 2 -0.860886 0.0509753 -0.0232963 0 0 0
13 1 2 -0.960378 -0.560171 -0.75316 0 0 0
14 1 2 -1.50721 -0.717439 0.0262361 0 0 0
15 1 2 -1.39073 -1.67799 -0.0980619 0 0 0
16 1 2 -0.732877 -1.70573 -0.851165 0 0 0
17 2 1 -2.4337 -1.89771 -0.0258175 0 0 -1
18 2 1 -1.83875 1.96662 0.702237 0 -1 -1
19 2 1 -1.30439 -1.5668 1.12662 0 0 -1
20 2 1 -0.420735 -1.29216 1.36391 0 0 -1
21 2 1 0.0935852 -1.85448 0.795392 0 0 -1
22 2 1 0.0667967 -1.53746 -0.113632 0 0 -1
23 2 1 0.686136 -0.907643 -0.465643 0 0 -1
24 2 1 0.757776 -0.26577 0.259052 0 0 -1
25 2 2 1.51039 0.324635 0.603481 0 0 -1
26 2 2 1.21094 -0.385448 1.21075 0 0 -1
27 2 2 1.66358 0.103316 1.86565 0 0 -1
28 2 2 2.50378 0.186969 1.46929 0 0 -1
29 2 2 2.48548 0.788504 0.575344 0 0 -1
30 2 2 2.78896 1.58972 0.260559 0 0 -1
31 2 2 2.46387 1.97402 -0.503699 0 0 -1
32 2 2 2.20985 1.02998 -0.427142 0 0 -1
33 3 1 -1.81268 -0.652571 1.82869 0 1 -1
34 3 1 -1.07825 -1.09318 -1.91857 0 1 0
35 3 1 -0.689007 -1.98184 -1.83293 0 1 0
36 3 1 0.146017 2.06732 2.13637 0 0 -1
37 3 1 0.527163 -1.95225 -1.2353 0 1 0
38 3 1 1.4877 -1.69407 -0.966219 0 1 0
39 3 1 2.31271 -1.75137 -1.4124 0 1 0
40 3 1 3.109 -1.31233 -1.10733 0 1 0
41 3 2 3.81581 -0.707637 -0.869862 0 1 0
42 3 2 4.32521 -0.414102 -1.74679 0 1 0
43 3 2 4.2775 -1.20781 1.92499 0 1 -1
44 3 2 3.59309 -1.22019 1.24647 0 1 -1
45 3 2 3.04737 -1.35523 1.97149 0 1 -1
46 3 2 3.44356 2.04848 -2.05921 0 0 0
47 3 2 3.07085 1.53704 1.41808 0 0 -1
48 3 2 3.81746 1.32645 0.882299 0 0 -1
49 4 1 -5.51016 -0.0984055 1.52745 0 0 0
50 4 1 -5.16606 -0.889804 1.92966 0 0 0
51 4 1 -4.63171 -0.727396 1.1243 0 0 0
52 4 1 -4.79195 -1.32368 0.319636 0 0 0
53 4 1 -4.07532 -1.10087 -0.306792 0 0 0
54 4 1 -3.49427 -1.54479 0.352944 0 0 0
55 4 1 -3.81777 1.98865 -0.227786 0 -1 0
56 4 1 -3.47878 -1.64051 -0.927055 0 0 0
57 4 2 -3.16249 -0.842153 -1.20445 0 0 0
58 4 2 -2.31127 -1.21329 -1.49149 0 0 0
59 4 2 -1.68121 -1.79199 -1.0947 0 0 0
60 4 2 -2.24493 1.72852 -1.4587 0 -1 0
61 4 2 -1.79804 1.43283 -0.591942 0 -1 0
62 4 2 -0.872309 1.60332 -0.352131 0 -1 0
63 4 2 0.0646201 1.5437 -0.0622287 0 -1 0
64 4 2 0.989027 1.95659 0.0639723 0 -1 0
65 5 1 -0.467462 -0.132556 -1.8458 0 0 0
66 5 1 0.266894 0.274975 -1.39499 0 0 0
67 5 1 1.04227 0.260659 -0.843612 0 0 0
68 5 1 0.878414 1.0042 -0.339344 0 0 0
69 5 1 1.39369 1.44959 -1.03291 0 0 0
70 5 1 2.1173 1.42079 -1.71995 0 0 0
71 5 1 2.91722 0.786576 -1.766 0 0 0
72 5 1 3.1846 0.0883599 -1.19006 0 0 0
73 5 2 2.84681 0.153858 -0.262691 0 0 0
74 5 2 2.79113 -0.193341 0.582363 0 0 0
75 5 2 3.03357 -0.963157 0.0307713 0 0 0
76 5 2 3.40255 -1.8726 -0.013078 0 0 0
77 5 2 4.11188 -1.21 0.146957 0 0 0
78 5 2 4.98832 -1.54726 0.270426 0 0 0
79 5 2 4.97269 -1.6036 -0.690414 0 0 0
80 5 2 5.14954 2.03579 -1.42796 0 -1 0
81 6 1 -2.78619 -1.37243 1.09569 0 1 0
82 6 1 -3.45643 -1.97172 1.42226 0 1 0
83 6 1 -3.15152 1.58864 2.07031 0 0 0
84 6 1 -2.49804 1.46752 1.35632 0 0 0
85 6 1 -1.72412 1.31878 1.92988 0 0 0
86 6 1 -1.50241 0.824237 1.1719 0 0 0
87 6 1 -0.74738 0.187916 1.17242 0 0 0
88 6 1 -0.110485 0.835686 1.07514 0 0 0
89 6 2 0.0771146 1.003 2.02109 0 0 0
90 6 2 0.980221 1.26939 1.98522 0 0 0
91 6 2 1.05042 1.84525 1.15184 0 0 0
92 6 2 1.33215 -1.45939 0.968694 0 1 0
93 6 2 2.07934 -1.88373 1.41016 0 1 0
94 6 2 1.45861 -1.69896 -2.05846 0 1 1
95 6 2 0.672144 -1.14236 1.71539 0 1 0
96 6 2 0.498213 -0.668614 -1.69059 0 1 1
97 7 1 -6.06068 -0.13347 -0.398834 0 -1 1
98 7 1 -5.60271 0.173864 -1.14101 0 -1 1
99 7 1 -5.40797 1.1259 -1.34184 0 -1 1
100 7 1 -6.20265 0.976713 -0.848963 0 -1 1
101 7 1 -5.68018 0.729711 -0.0787757 0 -1 1
102 7 1 -5.47001 1.61981 0.129318 0 -1 1
103 7 1 -5.78739 -2.05848 -0.586144 0 0 1
104 7 1 -5.91817 -1.24313 -1.03306 0 0 1
105 7 2 -5.28135 -1.66406 -1.60932 0 0 1
106 7 2 -4.30603 -1.65008 -1.51737 0 0 1
107 7 2 -4.14994 -1.43997 1.8152 0 0 0
108 7 2 -3.75404 -0.618385 1.65618 0 0 0
109 7 2 -4.29394 -0.356793 -1.78711 0 0 1
110 7 2 -4.56648 0.1468 -1.05057 0 0 1
111 7 2 -4.37422 0.0893196 -0.101152 0 0 1
112 7 2 -3.57025 -0.146193 0.392317 0 0 1
113 8 1 4.17177 1.02465 2.03012 0 -1 0
114 8 1 5.13348 1.07279 1.83148 0 -1 0
115 8 1 4.84987 0.18099 1.74445 0 -1 0
116 8 1 5.48435 -0.538706 1.9722 0 -1 0
117 8 1 5.86985 0.149648 1.44961 0 -1 0
118 8 1 6.16501 1.0012 1.16923 0 -1 0
119 8 1 -5.90796 1.89997 1.14997 1 -1 0
120 8 1 -6.19326 -1.76856 0.373687 1 0 0
121 8 2 5.91015 -0.956898 0.766098 0 0 0
122 8 2 5.69039 -0.792343 -0.169847 0 0 0
123 8 2 4.93555 -0.252447 -0.535222 0 0 0
124 8 2 4.23519 0.315139 -0.878271 0 0 0
125 8 2 4.05619 1.13318 -0.46312 0 0 0
126 8 2 4.88824 0.783567 -0.177927 0 0 0
127 8 2 5.30499 0.327575 0.493463 0 0 0
128 8 2 4.40824 0.119118 0.716202 0 0 0
ITEM: TIMESTEP
6000
ITEM: NUMBER OF ATOMS
128
ITEM: BOX BOUNDS pp pp pp
-6.2010977310080699e+00 6.2010977310080699e+00
-2.1200334123104558e+00 2.1200334123104558e+00
-2.1200334123104558e+00 2.1200334123104558e+00
ITEM: ATOMS id mol type x y z ix iy iz
1 1 1 -4.65519 1.58522 0.731219 0 0 0
2 1 1 -4.25249 -1.96373 1.30959 0 1 0
3 1 1 -4.59221 1.58477 1.92886 0 0 0
4 1 1 -4.06325 0.824781 1.69487 0 0 0
5 1 1 -3.43515 0.757491 0.895176 0 0 0
6 1 1 -2.94901 0.958461 0.0628105 0 0 0
7 1 1 -2.44097 0.211102 -0.204994 0 0 0
8 1 1 -2.18515 0.427231 -1.19554 0 0 0
9 1 2 -1.64134 -0.287341 -1.50095 0 0 0
10 1 2 -1.0903 0.593387 -1.3213 0 0 0
11 1 2 -1.37945 0.443461 -0.410634 0 0 0
12 1 2 -0.569055 0.360646 0.119566 0 0 0
13 1 2 -0.890443 -0.589203 -0.114198 0 0 0
14 1 2 -1.64061 -1.15787 -0.0216811 0 0 0
15 1 2 -0.905102 -1.71971 -0.204091 0 0 0
16 1 2 -0.160771 -1.73051 -0.781809 0 0 0
17 2 1 -2.20733 -1.94843 0.466124 0 0 -1
18 2 1 -1.59147 1.52065 0.394266 0 -1 -1
19 2 1 -1.14964 -2.13421 0.986086 0 0 -1
20 2 1 -0.645416 -1.47418 1.47283 0 0 -1
21 2 1 0.0231629 -1.7769 0.900248 0 0 -1
22 2 1 0.228807 -1.00167 0.368956 0 0 -1
23 2 1 0.452686 -0.872887 -0.545815 0 0 -1
24 2 1 1.28073 -0.914966 -0.191321 0 0 -1
25 2 2 1.42961 -0.249819 0.458214 0 0 -1
26 2 2 2.00727 -0.396109 1.21229 0 0 -1
27 2 2 1.78255 0.490955 1.57165 0 0 -1
28 2 2 2.5213 1.08605 1.82031 0 0 -1
29 2 2 2.63264 0.454061 1.06875 0 0 -1
30 2 2 2.69583 1.08313 0.37079 0 0 -1
31 2 2 1.95723 1.22751 -0.216598 0 0 -1
32 2 2 1.94336 0.198153 -0.457162 0 0 -1
33 3 1 -1.75993 -1.18721 1.58885 0 1 -1
34 3 1 -1.41586 -1.59978 -1.79792 0 1 0
35 3 1 -0.857041 1.8595 2.11048 0 0 -1
36 3 1 0.0289201 2.07325 -2.08784 0 0 0
37 3 1 0.759219 -1.79096 -1.54286 0 1 0
38 3 1 1.37615 -1.77938 -0.766911 0 1 0
39 3 1 2.14129 -1.21894 -1.11957 0 1 0
40 3 1 3.0564 -1.49347 -1.25662 0 1 0
41 3 2 3.94047 -0.933427 -1.40466 0 1 0
42 3 2 4.5397 -0.562826 -2.09939 0 1 0
43 3 2 4.16337 -1.32515 1.74609 0 1 -1
44 3 2 3.58626 -1.34729 0.980693 0 1 -1
45 3 2 2.98999 -1.59614 1.75277 0 1 -1
46 3 2 3.66013 1.98018 2.03068 0 0 -1
47 3 2 3.16395 1.7792 1.22627 0 0 -1
48 3 2 3.50717 0.909298 0.9904 0 0 -1
49 4 1 -4.95614 0.340788 1.54259 0 0 0
50 4 1 -5.45398 -0.233706 0.993119 0 0 0
51 4 1 -4.60757 -0.625779 0.747801 0 0 0
52 4 1 -5.20952 -1.35758 0.795762 0 0 0
53 4 1 -5.01008 -1.14065 -0.0829631 0 0 0
54 4 1 -4.38964 -1.83135 0.163483 0 0 0
55 4 1 -3.74817 2.05569 -0.453242 0 -1 0
56 4 1 -3.00948 -1.56861 -0.196894 0 0 0
57 4 2 -2.56054 -1.07853 -0.874005 0 0 0
58 4 2 -2.55574 -0.98776 -1.84216 0 0 0
59 4 2 -2.44663 -1.89279 -1.6388 0 0 0
60 4 2 -2.49017 1.80564 -0.763838 0 -1 0
61 4 2 -1.50736 1.88442 -0.723503 0 -1 0
62 4 2 -0.750643 1.29081 -0.512438 0 -1 0
63 4 2 -0.188893 1.85259 0.0893792 0 -1 0
64 4 2 0.817618 1.56863 -0.0611004 0 -1 0
65 5 1 -0.0938132 -0.21637 -1.78389 0 0 0
66 5 1 0.258588 0.651826 -1.64798 0 0 0
67 5 1 1.12724 0.203938 -1.31703 0 0 0
68 5 1 0.891516 0.627942 -0.496673 0 0 0
69 5 1 1.14021 1.26229 -1.22804 0 0 0
70 5 1 1.96219 1.48893 -1.60103 0 0 0
71 5 1 2.64562 1.43447 -0.94644 0 0 0
72 5 1 2.99462 0.574522 -0.771988 0 0 0
73 5 2 3.12902 -0.116882 0.0188447 0 0 0
74 5 2 2.56398 -0.921633 -0.192482 0 0 0
75 5 2 2.38979 -1.85522 -0.113312 0 0 0
76 5 2 3.39793 -1.93937 -0.27426 0 0 0
77 5 2 4.06911 -1.19675 -0.188522 0 0 0
78 5 2 4.54331 -1.89076 0.20836 0 0 0
79 5 2 4.43588 -2.0291 -0.746927 0 0 0
80 5 2 5.42209 2.06641 -0.974176 0 -1 0
81 6 1 -2.7653 -0.84754 1.08534 0 1 0
82 6 1 -3.1507 -1.764 1.01983 0 1 0
83 6 1 -3.00348 1.77181 1.66662 0 0 0
84 6 1 -2.64558 1.13854 -1.93267 0 0 1
85 6 1 -2.08338 0.855607 1.54705 0 0 0
86 6 1 -1.28489 0.205892 1.68808 0 0 0
87 6 1 -0.5783 0.620512 1.22252 0 0 0
88 6 1 0.190674 0.395616 0.748946 0 0 0
89 6 2 0.718112 0.689135 1.43843 0 0 0
90 6 2 1.141 1.57989 1.51337 0 0 0
91 6 2 1.38467 1.24182 0.660295 0 0 0
92 6 2 1.72674 -2.10226 0.775674 0 1 0
93 6 2 2.04082 2.12077 1.66683 0 0 0
94 6 2 1.19197 -1.65762 1.69353 0 1 0
95 6 2 0.617384 -0.880594 1.59029 0 1 0
96 6 2 1.06063 -0.788882 -1.82165 0 1 1
97 7 1 -5.68514 -0.662693 -0.912431 0 -1 1
98 7 1 -5.49731 0.175456 -1.36161 0 -1 1
99 7 1 -5.84533 0.989431 -1.09846 0 -1 1
100 7 1 5.92534 1.19206 -0.408484 -1 -1 1
101 7 1 -6.15639 1.82606 0.226749 0 -1 1
102 7 1 -5.33766 1.85112 -0.289294 0 -1 1
103 7 1 -5.82978 -1.65552 -0.692165 0 0 1
104 7 1 -5.55019 -1.58047 -1.60318 0 0 1
105 7 2 -5.00182 -0.767431 -1.698 0 0 1
106 7 2 -4.42601 -1.49367 -1.88879 0 0 1
107 7 2 -3.87171 -1.32837 -1.09954 0 0 1
108 7 2 -3.68527 -0.454325 -1.56181 0 0 1
109 7 2 -4.21342 0.330152 -1.7025 0 0 1
110 7 2 -3.7462 0.659057 -0.953366 0 0 1
111 7 2 -4.40373 0.15159 -0.43254 0 0 1
112 7 2 -3.78382 -0.555598 -0.247419 0 0 1
113 8 1 3.79017 0.596669 -1.74188 0 -1 1
114 8 1 4.68736 1.05182 -1.6741 0 -1 1
115 8 1 4.86479 0.452059 1.86684 0 -1 0
116 8 1 5.72364 0.122947 1.87237 0 -1 0
117 8 1 -6.09636 0.882644 1.76094 1 -1 0
118 8 1 5.70497 1.59149 1.44561 0 -1 0
119 8 1 -6.0253 -2.00953 1.50152 1 0 0
120 8 1 5.90851 -1.62186 0.78472 0 0 0
121 8 2 6.11649 -0.75601 0.442186 0 0 0
122 8 2 5.19356 -0.670989 0.266728 0 0 0
123 8 2 5.66 -0.124305 -0.416232 0 0 0
124 8 2 4.99374 0.299886 -1.01005 0 0 0
125 8 2 4.05565 0.530305 -0.642821 0 0 0
126 8 2 4.64716 1.26375 -0.466539 0 0 0
127 8 2 4.26544 0.947073 0.284891 0 0 0
128 8 2 4.4547 0.125879 0.741546 0 0 0
ITEM: TIMESTEP
6200
ITEM: NUMBER OF ATOMS
128
ITEM: BOX BOUNDS pp pp pp
-6.2010977310080699e+00 6.2010977310080699e+00
-2.1200334123104558e+00 2.1200334123104558e+00
-2.1200334123104558e+00 2.1200334123104558e+00
ITEM: ATOMS id mol type x y z ix iy iz
1 1 1 -5.01193 2.07338 0.691192 0 0 0
2 1 1 -4.35117 -1.59986 1.09521 0 1 0
3 1 1 -3.84825 -1.97846 1.79692 0 1 0
4 1 1 -3.94055 1.51424 1.09439 0 0 0
5 1 1 -3.9745 0.538577 0.72429 0 0 0
6 1 1 -3.33494 1.07249 0.25294 0 0 0
7 1 1 -3.08868 0.156682 0.0943119 0 0 0
8 1 1 -2.79857 0.187677 -0.779322 0 0 0
9 1 2 -2.00423 -0.10976 -1.25496 0 0 0
10 1 2 -1.07128 -0.276764 -1.03908 0 0 0
11 1 2 -1.34018 0.533635 -0.599509 0 0 0
12 1 2 -0.599886 0.319542 -0.0640462 0 0 0
13 1 2 -0.926263 -0.308942 0.636842 0 0 0
14 1 2 -0.762901 -1.19139 0.419064 0 0 0
15 1 2 -0.433307 -1.31091 -0.515646 0 0 0
16 1 2 0.380972 -1.76709 -0.754298 0 0 0
17 2 1 -1.61837 2.08978 0.761199 0 -1 -1
18 2 1 -1.28446 1.18231 0.69434 0 -1 -1
19 2 1 -0.581024 1.75139 0.864012 0 -1 -1
20 2 1 -0.875914 -1.77844 1.37411 0 0 -1
21 2 1 0.0322336 -1.48954 1.33801 0 0 -1
22 2 1 0.1388 -0.862738 0.66236 0 0 -1
23 2 1 0.411339 -0.610316 -0.21327 0 0 -1
24 2 1 1.07671 -1.13917 0.143699 0 0 -1
25 2 2 1.73245 -0.772843 0.708736 0 0 -1
26 2 2 1.86647 -0.193849 1.44847 0 0 -1
27 2 2 2.24914 -0.0907855 -1.95707 0 0 0
28 2 2 2.67177 0.482046 1.59062 0 0 -1
29 2 2 2.98808 0.175773 0.788354 0 0 -1
30 2 2 2.59134 0.798046 0.188502 0 0 -1
31 2 2 1.78527 0.25354 0.0430618 0 0 -1
32 2 2 1.47154 -0.321872 -0.598213 0 0 -1
33 3 1 -2.00572 -1.3218 1.8713 0 1 -1
34 3 1 -1.51834 -2.08212 -2.04252 0 1 0
35 3 1 -0.937279 1.43825 -1.96449 0 0 0
36 3 1 -0.236209 -2.06869 -2.06222 0 1 0
37 3 1 0.737542 -1.93392 -2.03991 0 1 0
38 3 1 1.31751 -1.55051 -1.34224 0 1 0
39 3 1 2.17927 -1.1014 -1.15505 0 1 0
40 3 1 2.94783 -0.948942 -1.65173 0 1 0
41 3 2 3.85751 -0.956754 -1.58667 0 1 0
42 3 2 4.40897 -1.13637 1.87671 0 1 -1
43 3 2 4.5906 -0.766781 0.943753 0 1 -1
44 3 2 3.69753 -1.22998 0.925696 0 1 -1
45 3 2 2.84207 -0.908098 1.18983 0 1 -1
46 3 2 2.90697 -1.757 1.63468 0 1 -1
47 3 2 3.25311 1.8257 1.00416 0 0 -1
48 3 2 3.46057 1.13494 1.57054 0 0 -1
49 4 1 -5.22477 0.565183 1.4792 0 0 0
50 4 1 -4.95452 0.480919 0.578099 0 0 0
51 4 1 -5.14635 -0.445322 0.730062 0 0 0
52 4 1 -5.63352 -1.22903 0.913483 0 0 0
53 4 1 -5.33275 -1.21853 0.00919505 0 0 0
54 4 1 -4.46956 -1.56627 -0.342845 0 0 0
55 4 1 -3.73668 -2.09942 -0.118278 0 0 0
56 4 1 -3.1162 -1.318 -0.068572 0 0 0
57 4 2 -2.39842 -1.00563 -0.618234 0 0 0
58 4 2 -2.60713 -1.67734 -1.19813 0 0 0
59 4 2 -2.82662 1.63108 -1.41116 0 -1 0
60 4 2 -2.14251 1.51221 -0.646704 0 -1 0
61 4 2 -1.30816 1.59781 -0.930036 0 -1 0
62 4 2 -0.564446 1.6155 -0.361206 0 -1 0
63 4 2 0.353952 1.6963 -0.068383 0 -1 0
64 4 2 1.23865 2.02805 0.0228795 0 -1 0
65 5 1 -0.148543 -0.479458 -1.89534 0 0 0
66 5 1 -0.163299 0.378297 -1.52534 0 0 0
67 5 1 0.641734 0.124173 -1.10667 0 0 0
68 5 1 0.288627 0.851836 -0.626582 0 0 0
69 5 1 1.24743 1.04721 -1.05081 0 0 0
70 5 1 2.15633 1.05636 -1.31443 0 0 0
71 5 1 2.76302 1.54138 -0.843885 0 0 0
72 5 1 3.33101 0.769247 -0.775076 0 0 0
73 5 2 3.04878 -0.101714 -0.496803 0 0 0
74 5 2 2.52056 -0.614727 0.000678425 0 0 0
75 5 2 2.66813 -1.56909 -0.0256569 0 0 0
76 5 2 3.48765 -2.08899 -0.0494575 0 0 0
77 5 2 3.71332 -1.2283 -0.564943 0 0 0
78 5 2 4.62262 -1.42005 -0.341745 0 0 0
79 5 2 4.38441 -2.03208 -0.992152 0 0 0
80 5 2 5.14773 1.71858 -0.582897 0 -1 0
81 6 1 -2.95571 -0.922013 1.12067 0 1 0
82 6 1 -2.80664 -1.85357 1.41343 0 1 0
83 6 1 -2.55832 1.71171 0.813443 0 0 0
84 6 1 -2.26231 0.860923 1.17633 0 0 0
85 6 1 -2.09175 0.0777423 1.69165 0 0 0
86 6 1 -1.33533 0.689294 1.75556 0 0 0
87 6 1 -0.594143 0.443642 1.24289 0 0 0
88 6 1 0.307875 0.240558 0.877285 0 0 0
89 6 2 0.842735 0.270141 1.70904 0 0 0
90 6 2 0.572118 1.1838 1.33647 0 0 0
91 6 2 1.23265 1.14899 0.634286 0 0 0
92 6 2 1.99077 1.73062 0.860147 0 0 0
93 6 2 1.65041 2.00403 1.67057 0 0 0
94 6 2 1.07447 -1.64054 1.25278 0 1 0
95 6 2 0.766488 -0.838109 1.58655 0 1 0
96 6 2 1.36518 -0.724124 -1.89188 0 1 1
97 7 1 -5.39805 -0.447591 -1.00009 0 -1 1
98 7 1 -5.78166 0.399386 -0.854864 0 -1 1
99 7 1 6.13563 1.18925 -1.00681 -1 -1 1
100 7 1 6.1643 1.19764 -0.00626862 -1 -1 1
101 7 1 6.11233 -2.1147 -0.301327 -1 0 1
102 7 1 -5.42526 -2.07996 -0.676408 0 0 1
103 7 1 -6.07628 -1.93035 -1.31612 0 0 1
104 7 1 -5.58991 -1.2945 -1.79633 0 0 1
105 7 2 -4.79363 -0.968889 2.04163 0 0 0
106 7 2 -3.81161 -0.910906 2.03889 0 0 0
107 7 2 -4.22105 -1.1206 -1.37167 0 0 1
108 7 2 -4.43221 -0.155969 -1.2697 0 0 1
109 7 2 -3.80307 0.556076 -1.30983 0 0 1
110 7 2 -4.34384 1.22291 -0.840107 0 0 1
111 7 2 -4.28852 0.424673 -0.284488 0 0 1
112 7 2 -4.26205 -0.526065 0.0168753 0 0 1
113 8 1 3.85651 0.240836 -1.95641 0 -1 1
114 8 1 4.57419 0.848215 2.06253 0 -1 0
115 8 1 5.42707 0.916199 -1.77069 0 -1 1
116 8 1 6.15068 0.590975 1.92994 0 -1 0
117 8 1 -5.90692 1.46066 2.11615 1 -1 0
118 8 1 5.57181 1.78039 1.85711 0 -1 0
119 8 1 6.04451 -1.61282 1.69351 0 0 0
120 8 1 5.51978 -0.760618 1.71022 0 0 0
121 8 2 5.61321 -0.935448 0.770485 0 0 0
122 8 2 6.12238 -0.230823 0.326722 0 0 0
123 8 2 5.66863 -0.427082 -0.479201 0 0 0
124 8 2 5.66585 -0.688307 -1.38706 0 0 0
125 8 2 4.84849 -0.131333 -1.07612 0 0 0
126 8 2 4.94699 0.365497 -0.237926 0 0 0
127 8 2 4.17699 0.764265 0.0381221 0 0 0
128 8 2 4.24848 0.552554 0.984801 0 0 0
ITEM: TIMESTEP
6400
ITEM: NUMBER OF ATOMS
128
ITEM: BOX BOUNDS pp pp pp
-6.2010977310080699e+00 6.2010977310080699e+00
-2.1200334123104558e+00 2.1200334123104558e+00
-2.1200334123104558e+00 2.1200334123104558e+00
ITEM: ATOMS id mol type x y z ix iy iz
1 1 1 -4.86703 1.85486 0.285751 0 0 0
2 1 1 -4.5712 -1.78066 0.978512 0 1 0
3 1 1 -4.36092 -1.90415 1.93521 0 1 0
4 1 1 -4.43987 1.4552 1.45143 0 0 0
5 1 1 -3.65576 1.47602 0.780339 0 0 0
6 1 1 -3.19616 0.696889 0.46111 0 0 0
7 1 1 -3.07201 -0.25763 0.35055 0 0 0
8 1 1 -2.73814 0.134683 -0.446457 0 0 0
9 1 2 -2.28897 0.0348985 -1.28831 0 0 0
10 1 2 -1.91881 -0.611508 -0.654684 0 0 0
11 1 2 -1.21714 -0.0288139 -0.513591 0 0 0
12 1 2 -0.826397 -0.040759 0.34862 0 0 0
13 1 2 -1.61728 -0.544447 0.408771 0 0 0
14 1 2 -1.1971 -1.22406 -0.144452 0 0 0
15 1 2 -0.482335 -0.861397 -0.735264 0 0 0
16 1 2 0.452168 -0.977381 -0.489484 0 0 0
17 2 1 -1.13189 2.10051 0.426389 0 -1 -1
18 2 1 -1.13051 1.28699 0.912964 0 -1 -1
19 2 1 -0.24774 1.66347 1.01949 0 -1 -1
20 2 1 -0.871747 -2.03801 1.51982 0 0 -1
21 2 1 -0.0866125 -1.46543 1.83112 0 0 -1
22 2 1 -0.090529 -1.01149 0.972174 0 0 -1
23 2 1 0.437888 -0.392561 0.383517 0 0 -1
24 2 1 1.15608 -1.10929 0.260933 0 0 -1
25 2 2 1.68239 -0.708209 0.971197 0 0 -1
26 2 2 1.93523 0.139606 1.40038 0 0 -1
27 2 2 2.57706 0.120557 -2.07741 0 0 0
28 2 2 3.2805 0.319538 1.5445 0 0 -1
29 2 2 3.33215 0.461792 0.575867 0 0 -1
30 2 2 2.55477 0.197 0.0346955 0 0 -1
31 2 2 1.62298 0.0507777 -0.0927851 0 0 -1
32 2 2 1.53788 -0.461174 -0.929764 0 0 -1
33 3 1 -1.29052 -1.73485 -1.39072 0 1 0
34 3 1 -1.94123 1.84833 -1.6369 0 0 0
35 3 1 -1.00839 1.60108 -1.85158 0 0 0
36 3 1 -0.21634 1.98253 -1.36571 0 0 0
37 3 1 0.763202 -1.98366 -1.43488 0 1 0
38 3 1 1.60492 -1.55248 -1.77297 0 1 0
39 3 1 2.53453 -1.52356 -1.92456 0 1 0
40 3 1 3.50501 -1.42695 -1.79138 0 1 0
41 3 2 4.00966 -0.636446 2.06895 0 1 -1
42 3 2 4.29954 -1.28788 1.40976 0 1 -1
43 3 2 4.47769 -0.501242 0.83712 0 1 -1
44 3 2 3.65824 -0.970388 0.678863 0 1 -1
45 3 2 2.98275 -0.818269 1.30871 0 1 -1
46 3 2 2.37783 -1.59858 1.33796 0 1 -1
47 3 2 3.32398 -1.80101 1.57432 0 1 -1
48 3 2 4.12388 2.03653 2.04558 0 0 -1
49 4 1 -5.39814 1.14201 1.03653 0 0 0
50 4 1 -5.75606 0.207806 1.08408 0 0 0
51 4 1 -4.89277 -0.0313899 1.562 0 0 0
52 4 1 -5.12936 -0.693707 0.817252 0 0 0
53 4 1 -5.02874 -1.24831 0.0720922 0 0 0
54 4 1 -4.30805 -1.45045 -0.511117 0 0 0
55 4 1 -3.89697 -2.00196 0.170445 0 0 0
56 4 1 -3.48012 -1.15744 0.182856 0 0 0
57 4 2 -2.99673 -1.56053 -0.608407 0 0 0
58 4 2 -2.69824 1.87776 -0.312019 0 -1 0
59 4 2 -2.78231 1.16049 -0.985951 0 -1 0
60 4 2 -1.72817 1.05348 -0.815508 0 -1 0
61 4 2 -0.973267 1.60041 -0.563441 0 -1 0
62 4 2 -0.125109 1.9128 -0.239531 0 -1 0
63 4 2 0.819381 2.08822 -0.178695 0 -1 0
64 4 2 1.54864 -1.99243 -0.785275 0 0 0
65 5 1 -0.911034 -0.560905 -1.93506 0 0 0
66 5 1 -0.654624 0.170963 -1.42384 0 0 0
67 5 1 0.051129 0.219557 -0.778993 0 0 0
68 5 1 0.302645 1.08271 -0.976133 0 0 0
69 5 1 1.12829 0.568916 -0.710699 0 0 0
70 5 1 1.98027 0.95991 -1.01067 0 0 0
71 5 1 2.76869 1.53055 -1.11387 0 0 0
72 5 1 3.30906 0.765287 -1.18454 0 0 0
73 5 2 3.06015 -0.23039 -1.17329 0 0 0
74 5 2 2.68407 -1.07413 -0.94928 0 0 0
75 5 2 2.23168 -1.21567 -0.0651813 0 0 0
76 5 2 2.97295 -1.71279 0.16085 0 0 0
77 5 2 3.79528 -1.56438 -0.340585 0 0 0
78 5 2 4.73028 -1.64848 -0.739902 0 0 0
79 5 2 4.6673 1.77259 -1.25786 0 -1 0
80 5 2 4.74895 1.09072 -0.693575 0 -1 0
81 6 1 -3.15928 -1.46339 1.27922 0 1 0
82 6 1 -2.32923 -1.8724 0.983104 0 1 0
83 6 1 -2.14606 1.43529 0.906711 0 0 0
84 6 1 -2.04393 0.593444 0.393522 0 0 0
85 6 1 -2.2914 0.289275 1.26557 0 0 0
86 6 1 -1.451 0.287298 1.75837 0 0 0
87 6 1 -0.545127 0.170587 1.39526 0 0 0
88 6 1 0.13075 0.559685 0.86103 0 0 0
89 6 2 0.778126 0.351902 1.56438 0 0 0
90 6 2 0.788811 1.26787 1.36969 0 0 0
91 6 2 1.40972 0.868843 0.719147 0 0 0
92 6 2 2.06109 1.44071 0.975966 0 0 0
93 6 2 1.72008 1.6936 1.83932 0 0 0
94 6 2 0.957836 -1.93748 1.83528 0 1 0
95 6 2 1.04802 -0.928716 1.79483 0 1 0
96 6 2 0.708099 -0.87882 -1.5381 0 1 1
97 7 1 -5.61975 -0.624779 -0.751603 0 -1 1
98 7 1 -6.06897 0.270783 -0.587512 0 -1 1
99 7 1 5.86425 1.17508 -0.634978 -1 -1 1
100 7 1 6.19496 1.39333 0.231097 -1 -1 1
101 7 1 6.04579 -1.94928 0.00521391 -1 0 1
102 7 1 -5.92234 -2.00389 -0.917076 0 0 1
103 7 1 -5.43886 -1.5954 -1.66763 0 0 1
104 7 1 -5.56736 -0.916898 1.93529 0 0 0
105 7 2 -4.67872 -0.830384 -1.96202 0 0 1
106 7 2 -3.81077 -1.03275 2.04186 0 0 0
107 7 2 -3.20222 -0.320305 -1.92281 0 0 1
108 7 2 -3.69363 0.463742 -1.66924 0 0 1
109 7 2 -3.87796 1.04697 -0.972837 0 0 1
110 7 2 -4.85276 1.22775 -0.928353 0 0 1
111 7 2 -4.57007 0.636755 -0.236434 0 0 1
112 7 2 -4.17894 -0.092715 0.27569 0 0 1
113 8 1 4.2296 0.840108 -2.08341 0 -1 1
114 8 1 5.0328 0.831944 1.68824 0 -1 0
115 8 1 5.26085 1.13897 -1.65844 0 -1 1
116 8 1 6.03051 0.71417 -2.02305 0 -1 1
117 8 1 -5.79665 1.50165 -1.9526 1 -1 1
118 8 1 5.89359 2.12068 -2.11654 0 -1 1
119 8 1 5.47418 -1.30732 1.69643 0 0 0
120 8 1 5.54616 -0.402856 1.26102 0 0 0
121 8 2 5.70317 0.348327 0.699038 0 0 0
122 8 2 6.09487 -0.5103 0.331154 0 0 0
123 8 2 5.62075 -0.46506 -0.589228 0 0 0
124 8 2 5.59907 -1.07738 -1.37069 0 0 0
125 8 2 5.16169 -0.304041 -1.80042 0 0 0
126 8 2 4.55388 -0.0261298 -1.02278 0 0 0
127 8 2 4.09017 -0.386914 -0.249551 0 0 0
128 8 2 4.24585 0.508117 0.00244063 0 0 0
ITEM: TIMESTEP
6600
ITEM: NUMBER OF ATOMS
128
ITEM: BOX BOUNDS pp pp pp
-6.2010977310080699e+00 6.2010977310080699e+00
-2.1200334123104558e+00 2.1200334123104558e+00
-2.1200334123104558e+00 2.1200334123104558e+00
ITEM: ATOMS id mol type x y z ix iy iz
1 1 1 -5.63803 1.82598 0.137158 0 0 0
2 1 1 -5.12053 2.01764 0.958747 0 0 0
3 1 1 -5.07121 1.86257 1.96873 0 0 0
4 1 1 -4.2795 1.62145 1.43523 0 0 0
5 1 1 -3.34626 1.23437 1.53334 0 0 0
6 1 1 -2.79728 0.72072 0.980938 0 0 0
7 1 1 -2.83106 -0.21887 0.647518 0 0 0
8 1 1 -2.75362 0.49118 -0.0451728 0 0 0
9 1 2 -2.74997 0.133897 -0.949248 0 0 0
10 1 2 -2.50234 -0.808417 -1.10195 0 0 0
11 1 2 -2.01181 -0.306656 -0.413432 0 0 0
12 1 2 -1.30121 -0.354743 0.243728 0 0 0
13 1 2 -1.65812 -1.05742 0.861287 0 0 0
14 1 2 -1.51844 -1.58809 0.0481883 0 0 0
15 1 2 -0.988124 -1.1446 -0.592122 0 0 0
16 1 2 -0.110018 -0.726937 -0.333303 0 0 0
17 2 1 -0.474069 -2.02028 0.683658 0 0 -1
18 2 1 -0.819197 1.42603 1.07108 0 -1 -1
19 2 1 -0.138307 1.84815 1.50864 0 -1 -1
20 2 1 -1.11183 -1.99701 1.6827 0 0 -1
21 2 1 -0.508683 -1.31636 1.51123 0 0 -1
22 2 1 -0.385381 -0.958719 0.65178 0 0 -1
23 2 1 0.540432 -0.691358 0.642453 0 0 -1
24 2 1 1.29808 -1.27527 0.339017 0 0 -1
25 2 2 1.62673 -0.379027 0.513583 0 0 -1
26 2 2 2.04166 0.00980532 1.25253 0 0 -1
27 2 2 2.79826 0.294462 1.75523 0 0 -1
28 2 2 3.7065 0.398695 1.65796 0 0 -1
29 2 2 3.32403 0.426652 0.670385 0 0 -1
30 2 2 2.47502 0.144608 0.243757 0 0 -1
31 2 2 1.89921 0.468872 -0.453558 0 0 -1
32 2 2 1.21337 -0.187755 -0.635132 0 0 -1
33 3 1 -1.38012 -1.9174 -1.07567 0 1 0
34 3 1 -1.63816 1.76206 -1.86287 0 0 0
35 3 1 -0.660405 1.56508 -1.76268 0 0 0
36 3 1 0.11576 1.83601 -1.33043 0 0 0
37 3 1 1.10753 1.93079 -1.46322 0 0 0
38 3 1 1.95165 -1.83992 -1.40448 0 1 0
39 3 1 2.73677 -2.04927 -1.98171 0 1 0
40 3 1 3.42778 -1.42367 -2.00302 0 1 0
41 3 2 4.09514 -1.01724 1.48601 0 1 -1
42 3 2 4.63087 -0.194075 1.19782 0 1 -1
43 3 2 4.12326 -0.698968 0.522009 0 1 -1
44 3 2 3.2164 -0.579337 0.770162 0 1 -1
45 3 2 2.64597 -1.09018 1.37016 0 1 -1
46 3 2 2.80906 -1.70467 0.684296 0 1 -1
47 3 2 2.97665 1.63018 1.09302 0 0 -1
48 3 2 3.72839 2.02777 1.48075 0 0 -1
49 4 1 -5.50556 0.758547 1.02119 0 0 0
50 4 1 -5.09219 0.466579 1.81833 0 0 0
51 4 1 -4.53831 0.379548 1.04154 0 0 0
52 4 1 -5.10685 -0.292344 0.707217 0 0 0
53 4 1 -4.5057 -1.02042 0.498018 0 0 0
54 4 1 -4.47108 -0.924932 -0.503915 0 0 0
55 4 1 -4.3665 -1.91285 -0.344405 0 0 0
56 4 1 -3.50532 -1.65198 -0.211327 0 0 0
57 4 2 -3.25235 -2.0443 -1.05201 0 0 0
58 4 2 -3.06584 1.4888 -0.500247 0 -1 0
59 4 2 -2.10695 1.66453 -0.59157 0 -1 0
60 4 2 -1.25964 1.15151 -0.534974 0 -1 0
61 4 2 -0.389717 1.58798 -0.310858 0 -1 0
62 4 2 0.418198 1.9792 -0.0369531 0 -1 0
63 4 2 1.39912 2.00681 -0.2315 0 -1 0
64 4 2 2.00109 1.31926 0.152151 0 -1 0
65 5 1 -0.592129 -0.423885 -1.52083 0 0 0
66 5 1 -0.834352 0.515377 -1.26309 0 0 0
67 5 1 -0.516109 0.511412 -0.359547 0 0 0
68 5 1 0.419566 0.574911 -0.636941 0 0 0
69 5 1 0.940861 0.955018 -1.43326 0 0 0
70 5 1 1.8421 1.30861 -1.31462 0 0 0
71 5 1 2.82848 1.26135 -1.37407 0 0 0
72 5 1 3.53216 0.494564 -1.4879 0 0 0
73 5 2 2.8321 -0.127513 -1.15038 0 0 0
74 5 2 2.34777 -0.951865 -0.958758 0 0 0
75 5 2 2.63648 -1.00254 -0.0378974 0 0 0
76 5 2 3.42334 -1.62541 -0.300912 0 0 0
77 5 2 3.72105 1.92261 0.237263 0 -1 0
78 5 2 4.50149 -1.98962 -0.171047 0 0 0
79 5 2 4.01627 1.97392 -0.877758 0 -1 0
80 5 2 4.50612 1.20713 -1.19732 0 -1 0
81 6 1 -3.51879 -1.91452 1.31357 0 1 0
82 6 1 -2.61832 -1.64288 1.01965 0 1 0
83 6 1 -1.87187 1.98966 0.859739 0 0 0
84 6 1 -1.82204 1.08572 1.1289 0 0 0
85 6 1 -1.8325 0.106454 1.37202 0 0 0
86 6 1 -1.42773 0.292287 -2.0577 0 0 1
87 6 1 -0.572977 0.271949 1.78359 0 0 0
88 6 1 0.155721 0.196071 1.17623 0 0 0
89 6 2 1.04924 0.0846513 1.46933 0 0 0
90 6 2 0.937951 1.04484 1.25282 0 0 0
91 6 2 1.55122 0.661923 0.671684 0 0 0
92 6 2 2.12838 1.1237 1.35924 0 0 0
93 6 2 1.78745 2.0305 1.4978 0 0 0
94 6 2 0.853774 -1.98429 1.52605 0 1 0
95 6 2 0.983349 -1.30117 -2.08142 0 1 1
96 6 2 0.343014 -0.617499 -1.99882 0 1 1
97 7 1 -5.48254 -0.365772 -0.270459 0 -1 1
98 7 1 -5.87509 0.46948 -0.121754 0 -1 1
99 7 1 5.89268 1.23649 -0.285186 -1 -1 1
100 7 1 5.75076 2.04456 0.27471 -1 -1 1
101 7 1 -6.08204 -1.56792 -0.23279 0 0 1
102 7 1 -6.18834 -1.46485 -1.17251 0 0 1
103 7 1 -5.2914 -1.89007 -1.21375 0 0 1
104 7 1 -5.31865 -1.1714 -1.78528 0 0 1
105 7 2 -4.63263 -0.540056 -1.92031 0 0 1
106 7 2 -3.73615 -0.531774 -1.50489 0 0 1
107 7 2 -3.31107 0.0832036 2.11371 0 0 0
108 7 2 -3.21619 0.945248 -1.63402 0 0 1
109 7 2 -4.15137 0.929321 -1.6966 0 0 1
110 7 2 -4.84917 1.09925 -1.06895 0 0 1
111 7 2 -4.64566 1.21261 -0.158794 0 0 1
112 7 2 -4.00626 0.537271 0.107075 0 0 1
113 8 1 4.39991 1.41033 1.81321 0 -1 0
114 8 1 5.00873 0.868298 1.37522 0 -1 0
115 8 1 5.29644 0.725146 -2.00207 0 -1 1
116 8 1 -6.09202 0.632816 -1.84357 1 -1 1
117 8 1 -6.13362 1.56747 -2.02625 1 -1 1
118 8 1 -6.14463 -1.82228 1.69755 1 0 0
119 8 1 -6.11746 -0.861595 1.45539 1 0 0
120 8 1 6.2097 0.133097 1.43597 0 0 0
121 8 2 5.85641 -0.0505965 0.566221 0 0 0
122 8 2 5.51992 -0.079868 -0.435453 0 0 0
123 8 2 5.37478 -0.910851 -0.919088 0 0 0
124 8 2 4.80154 -1.3123 -1.59869 0 0 0
125 8 2 5.19005 -0.518798 -1.9408 0 0 0
126 8 2 4.31531 -0.299637 -1.47431 0 0 0
127 8 2 4.06853 -0.985797 -0.840304 0 0 0
128 8 2 3.70683 -0.159008 -0.494686 0 0 0
ITEM: TIMESTEP
6800
ITEM: NUMBER OF ATOMS
128
ITEM: BOX BOUNDS pp pp pp
-6.2010977310080699e+00 6.2010977310080699e+00
-2.1200334123104558e+00 2.1200334123104558e+00
-2.1200334123104558e+00 2.1200334123104558e+00
ITEM: ATOMS id mol type x y z ix iy iz
1 1 1 -5.3065 2.03414 -0.0288777 0 0 0
2 1 1 -5.2807 1.80581 0.845819 0 0 0
3 1 1 -5.30183 -1.96326 1.67189 0 1 0
4 1 1 -4.36789 2.03253 1.57977 0 0 0
5 1 1 -3.84664 1.53236 0.92514 0 0 0
6 1 1 -3.2166 0.882959 1.21409 0 0 0
7 1 1 -2.53715 0.367448 0.807778 0 0 0
8 1 1 -2.85128 0.498088 -0.161307 0 0 0
9 1 2 -2.97269 -0.420125 -0.1174 0 0 0
10 1 2 -2.82951 -0.732776 -0.999088 0 0 0
11 1 2 -1.90611 -0.739582 -0.750701 0 0 0
12 1 2 -1.90091 -0.451961 0.198824 0 0 0
13 1 2 -1.60506 -0.734338 1.08324 0 0 0
14 1 2 -1.52788 -1.44006 0.394097 0 0 0
15 1 2 -1.05424 -1.60566 -0.436811 0 0 0
16 1 2 -0.0287351 -1.65633 -0.562925 0 0 0
17 2 1 -0.137139 -1.87532 0.689283 0 0 -1
18 2 1 -0.362963 1.40429 1.0124 0 -1 -1
19 2 1 -0.620298 1.81196 1.82822 0 -1 -1
20 2 1 -1.1762 -1.6455 2.08454 0 0 -1
21 2 1 -0.625104 -0.88553 1.59522 0 0 -1
22 2 1 -0.226506 -0.65813 0.67488 0 0 -1
23 2 1 0.419876 -0.962999 0.0812599 0 0 -1
24 2 1 1.36686 -1.20139 0.22845 0 0 -1
25 2 2 1.90956 -0.869153 0.921332 0 0 -1
26 2 2 2.71751 -0.281966 1.14688 0 0 -1
27 2 2 3.42751 -0.0263463 1.82979 0 0 -1
28 2 2 3.0105 0.669556 1.25147 0 0 -1
29 2 2 3.74916 0.741361 0.628329 0 0 -1
30 2 2 3.34994 0.720979 -0.290662 0 0 -1
31 2 2 2.40718 0.575731 -0.161005 0 0 -1
32 2 2 1.59607 0.0839083 -0.0879326 0 0 -1
33 3 1 -2.08199 1.85822 -1.9367 0 0 0
34 3 1 -1.56606 1.62422 -1.06709 0 0 0
35 3 1 -0.615806 1.80597 -1.09947 0 0 0
36 3 1 0.233606 1.82091 -1.57929 0 0 0
37 3 1 0.993269 -2.02036 -1.20036 0 1 0
38 3 1 1.93668 -2.03026 -1.38158 0 1 0
39 3 1 2.77754 -1.57037 -1.54814 0 1 0
40 3 1 3.56059 -1.45599 -2.09019 0 1 0
41 3 2 4.17109 -1.19536 1.4794 0 1 -1
42 3 2 4.56307 -0.349706 1.24906 0 1 -1
43 3 2 3.70407 -0.475099 0.853601 0 1 -1
44 3 2 3.17983 -1.26822 1.05838 0 1 -1
45 3 2 2.40657 -1.30392 1.69349 0 1 -1
46 3 2 2.25278 -1.94957 0.977993 0 1 -1
47 3 2 2.97556 1.7526 0.994733 0 0 -1
48 3 2 3.95056 1.986 1.05173 0 0 -1
49 4 1 -5.37692 0.314164 1.40933 0 0 0
50 4 1 -4.44097 0.455376 1.58293 0 0 0
51 4 1 -3.91418 0.359708 0.7671 0 0 0
52 4 1 -4.73307 -0.152598 0.530047 0 0 0
53 4 1 -4.05575 -0.743831 0.971728 0 0 0
54 4 1 -4.07652 -0.733152 0.0119505 0 0 0
55 4 1 -4.11773 -1.47231 -0.598219 0 0 0
56 4 1 -3.52049 2.04294 -0.353699 0 -1 0
57 4 2 -3.23454 1.88803 -1.30227 0 -1 0
58 4 2 -2.44268 2.05224 -0.6518 0 -1 0
59 4 2 -1.92564 1.46576 -0.0189927 0 -1 0
60 4 2 -0.930672 1.50823 0.0230674 0 -1 0
61 4 2 0.0356637 1.59239 -0.0446246 0 -1 0
62 4 2 0.698598 -1.98493 0.0232161 0 0 0
63 4 2 1.50873 1.7376 -0.0471556 0 -1 0
64 4 2 2.51156 1.78558 -0.293586 0 -1 0
65 5 1 -0.775373 0.0540797 -1.18118 0 0 0
66 5 1 -0.421951 -0.410633 -0.338045 0 0 0
67 5 1 0.18432 0.147945 0.157876 0 0 0
68 5 1 0.713831 0.460162 -0.535301 0 0 0
69 5 1 1.24653 0.262248 -1.31167 0 0 0
70 5 1 1.70559 0.571958 -2.08718 0 0 0
71 5 1 2.3084 1.277 -1.80795 0 0 0
72 5 1 3.09517 0.611438 -1.46355 0 0 0
73 5 2 2.47071 -0.0440153 -1.18697 0 0 0
74 5 2 1.97751 -0.905718 -1.48882 0 0 0
75 5 2 2.61191 -1.10488 -0.695586 0 0 0
76 5 2 3.17822 -1.62142 0.0323276 0 0 0
77 5 2 3.60733 1.70209 -0.152654 0 -1 0
78 5 2 4.49619 1.58569 -0.516154 0 -1 0
79 5 2 4.28675 -2.06708 -1.24575 0 0 0
80 5 2 4.03691 1.25463 -1.47096 0 -1 0
81 6 1 -3.3294 -1.40291 1.28801 0 1 0
82 6 1 -2.56127 -1.75576 0.871817 0 1 0
83 6 1 -2.53126 1.63456 1.38583 0 0 0
84 6 1 -1.6445 1.29024 1.67451 0 0 0
85 6 1 -1.57885 0.61451 1.02775 0 0 0
86 6 1 -1.41527 0.0863333 1.81941 0 0 0
87 6 1 -0.716964 0.771288 1.87992 0 0 0
88 6 1 -0.024242 0.220721 1.54181 0 0 0
89 6 2 0.917926 0.180641 1.6452 0 0 0
90 6 2 0.467363 1.08846 1.86487 0 0 0
91 6 2 0.551554 1.08814 0.927592 0 0 0
92 6 2 1.51658 1.01615 0.926642 0 0 0
93 6 2 1.65163 1.75168 1.61017 0 0 0
94 6 2 1.04526 -1.85775 1.2018 0 1 0
95 6 2 1.17377 -1.17891 1.89494 0 1 0
96 6 2 0.436319 -1.11488 -1.75642 0 1 1
97 7 1 -5.97945 0.516637 -0.605442 0 -1 1
98 7 1 -6.12165 1.01387 0.197694 0 -1 1
99 7 1 5.4719 1.40189 0.433666 -1 -1 1
100 7 1 5.41461 1.90048 -0.354335 -1 -1 1
101 7 1 6.07159 -1.69383 -0.61453 -1 0 1
102 7 1 -5.89312 -1.31418 -1.3554 0 0 1
103 7 1 -5.15316 -1.99091 -1.44449 0 0 1
104 7 1 -5.00703 -1.21184 -1.93836 0 0 1
105 7 2 -4.39462 -0.559985 -1.6633 0 0 1
106 7 2 -3.83953 -0.258252 -0.991037 0 0 1
107 7 2 -3.18855 0.125667 -1.59451 0 0 1
108 7 2 -3.22902 0.967697 -2.04385 0 0 1
109 7 2 -4.1328 0.884955 -1.68394 0 0 1
110 7 2 -4.9761 0.986509 -1.1697 0 0 1
111 7 2 -4.47673 1.58311 -0.586275 0 0 1
112 7 2 -3.83761 0.901279 -0.497196 0 0 1
113 8 1 4.94554 1.54626 1.41164 0 -1 0
114 8 1 5.32293 0.736203 1.63109 0 -1 0
115 8 1 5.97686 0.219164 2.07128 0 -1 0
116 8 1 5.65528 0.991181 -1.68619 0 -1 1
117 8 1 5.66189 1.83761 2.11651 0 -1 0
118 8 1 5.76098 -1.51282 1.74141 0 0 0
119 8 1 -5.90969 -0.828108 1.69838 1 0 0
120 8 1 5.81114 -0.682379 0.960635 0 0 0
121 8 2 5.4272 -0.310189 0.167454 0 0 0
122 8 2 5.21998 -0.462356 -0.754531 0 0 0
123 8 2 4.70819 -1.26154 -0.660405 0 0 0
124 8 2 5.11006 -1.51992 -1.4816 0 0 0
125 8 2 5.16781 -0.687483 -1.97224 0 0 0
126 8 2 4.22029 -0.515108 -1.85146 0 0 0
127 8 2 3.6418 -0.860923 -1.14244 0 0 0
128 8 2 3.97569 -0.023518 -0.931264 0 0 0
ITEM: TIMESTEP
7000
ITEM: NUMBER OF ATOMS
128
ITEM: BOX BOUNDS pp pp pp
-6.2010977310080699e+00 6.2010977310080699e+00
-2.1200334123104558e+00 2.1200334123104558e+00
-2.1200334123104558e+00 2.1200334123104558e+00
ITEM: ATOMS id mol type x y z ix iy iz
1 1 1 -5.06444 -1.89836 -0.157249 0 1 0
2 1 1 -5.47715 1.73894 0.425301 0 0 0
3 1 1 -5.38918 -1.91728 1.18928 0 1 0
4 1 1 -4.53647 -1.8965 1.60341 0 1 0
5 1 1 -4.38003 1.75896 0.910521 0 0 0
6 1 1 -3.44317 1.55912 1.01508 0 0 0
7 1 1 -2.98791 0.764837 0.742977 0 0 0
8 1 1 -2.54489 0.292289 0.0407094 0 0 0
9 1 2 -2.70994 -0.659608 0.0419498 0 0 0
10 1 2 -2.28831 -1.18712 -0.566514 0 0 0
11 1 2 -1.6416 -0.564025 -0.948746 0 0 0
12 1 2 -1.47697 -0.397422 -0.0449617 0 0 0
13 1 2 -1.86523 -0.834216 0.667368 0 0 0
14 1 2 -1.23723 -1.51482 0.551747 0 0 0
15 1 2 -1.1553 -1.59703 -0.428567 0 0 0
16 1 2 -0.346382 -1.81471 0.0452981 0 0 0
17 2 1 -0.293963 -1.75931 1.63057 0 0 -1
18 2 1 -0.762681 1.68794 1.7092 0 -1 -1
19 2 1 -1.52292 -1.99681 1.8601 0 0 -1
20 2 1 -1.48947 -1.24055 -1.77999 0 0 0
21 2 1 -1.20591 -0.792733 1.56477 0 0 -1
22 2 1 -0.371469 -0.699699 1.06444 0 0 -1
23 2 1 0.226257 -1.21853 0.540977 0 0 -1
24 2 1 1.14277 -1.02719 0.267701 0 0 -1
25 2 2 2.03302 -0.756167 0.579313 0 0 -1
26 2 2 2.24741 -0.25979 1.28539 0 0 -1
27 2 2 2.88969 0.177736 1.82373 0 0 -1
28 2 2 2.82582 0.827261 1.08626 0 0 -1
29 2 2 3.72259 0.890043 0.77027 0 0 -1
30 2 2 3.68734 0.372824 0.013781 0 0 -1
31 2 2 2.73078 0.209009 0.308893 0 0 -1
32 2 2 1.88226 0.0037711 -0.122152 0 0 -1
33 3 1 -2.22087 -1.91764 -1.37114 0 1 0
34 3 1 -1.37923 1.88268 -1.29193 0 0 0
35 3 1 -0.430817 1.64595 -1.37664 0 0 0
36 3 1 0.49885 1.86612 -1.72614 0 0 0
37 3 1 1.2401 -1.81361 -1.68089 0 1 0
38 3 1 2.20977 -2.05595 -1.78177 0 1 0
39 3 1 3.00344 1.89902 -1.29832 0 0 0
40 3 1 3.37624 -1.83694 -2.02487 0 1 0
41 3 2 4.22872 -2.10277 1.7963 0 1 -1
42 3 2 4.17616 -1.47102 1.06078 0 1 -1
43 3 2 4.33834 -0.533786 0.931711 0 1 -1
44 3 2 3.4641 -0.672597 1.31279 0 1 -1
45 3 2 2.73737 -1.1204 1.7735 0 1 -1
46 3 2 2.84573 -1.89985 1.28525 0 1 -1
47 3 2 3.44169 -1.79702 0.554176 0 1 -1
48 3 2 4.14287 1.85988 0.586785 0 0 -1
49 4 1 -5.14021 0.530666 1.40962 0 0 0
50 4 1 -4.30263 0.786558 1.12881 0 0 0
51 4 1 -4.36831 0.258213 0.350565 0 0 0
52 4 1 -5.15428 -0.304003 0.424913 0 0 0
53 4 1 -4.47069 -0.901111 0.798937 0 0 0
54 4 1 -4.29421 -1.15628 -0.0864243 0 0 0
55 4 1 -3.47524 -1.20619 -0.589933 0 0 0
56 4 1 -3.69948 -2.0468 -0.0989487 0 0 0
57 4 2 -3.07097 1.87186 -0.704648 0 -1 0
58 4 2 -2.26513 2.04053 -0.169787 0 -1 0
59 4 2 -1.45113 1.62735 0.0411778 0 -1 0
60 4 2 -0.511522 1.38492 -0.0888734 0 -1 0
61 4 2 0.0755674 1.00892 0.553163 0 -1 0
62 4 2 0.75648 1.50742 0.166586 0 -1 0
63 4 2 1.36447 1.80438 -0.47722 0 -1 0
64 4 2 2.26071 1.55434 -0.589341 0 -1 0
65 5 1 -0.860588 0.511553 -0.636262 0 0 0
66 5 1 -0.499443 -0.406279 -0.717428 0 0 0
67 5 1 0.355777 -0.206745 -0.38371 0 0 0
68 5 1 0.762414 0.528426 -0.88912 0 0 0
69 5 1 1.63299 0.626358 -1.29164 0 0 0
70 5 1 1.81731 0.646265 1.95578 0 0 -1
71 5 1 2.66168 1.07977 -1.93297 0 0 0
72 5 1 2.78831 0.738267 -1.01579 0 0 0
73 5 2 2.75938 -0.190032 -0.837174 0 0 0
74 5 2 2.24418 -0.877233 -1.28631 0 0 0
75 5 2 2.16959 -1.34922 -0.414941 0 0 0
76 5 2 3.0222 -1.28604 -0.77437 0 0 0
77 5 2 3.77247 -1.87771 -0.764614 0 0 0
78 5 2 3.96916 1.52102 -0.496445 0 -1 0
79 5 2 4.15643 1.36945 -1.45135 0 -1 0
80 5 2 3.62902 1.3503 1.94292 0 -1 -1
81 6 1 -2.70168 -0.980452 1.64056 0 1 0
82 6 1 -2.65015 -1.96951 1.38308 0 1 0
83 6 1 -2.52555 1.366 1.7694 0 0 0
84 6 1 -2.04031 0.822689 1.1365 0 0 0
85 6 1 -1.21145 0.266154 1.01582 0 0 0
86 6 1 -1.43648 0.345271 1.94911 0 0 0
87 6 1 -0.58102 0.176473 -1.84428 0 0 1
88 6 1 -0.230374 0.56642 1.61729 0 0 0
89 6 2 0.209568 -0.218065 1.79726 0 0 0
90 6 2 0.600903 0.463523 -1.97242 0 0 1
91 6 2 0.763356 1.01357 1.53071 0 0 0
92 6 2 1.4147 0.988418 0.776381 0 0 0
93 6 2 1.57913 1.73555 1.38925 0 0 0
94 6 2 0.948553 -1.81145 1.53175 0 1 0
95 6 2 1.39638 -0.994092 1.68229 0 1 0
96 6 2 0.594747 -1.06249 -2.05045 0 1 1
97 7 1 -5.78747 1.13744 -0.661195 0 -1 1
98 7 1 5.85205 1.14507 -0.0604992 -1 -1 1
99 7 1 5.28541 1.89809 -0.0177533 -1 -1 1
100 7 1 5.81902 1.81253 -0.860463 -1 -1 1
101 7 1 -5.84921 2.11505 -1.39882 0 -1 1
102 7 1 -5.43451 -1.29598 -1.16982 0 0 1
103 7 1 -4.72816 -1.78015 -1.64447 0 0 1
104 7 1 -4.80884 -0.946207 -2.10529 0 0 1
105 7 2 -4.32467 -0.646889 -1.34991 0 0 1
106 7 2 -4.03221 -0.15355 -0.616331 0 0 1
107 7 2 -3.24871 0.129036 -1.0862 0 0 1
108 7 2 -3.70319 0.834872 -1.52326 0 0 1
109 7 2 -4.25181 1.32801 2.01332 0 0 0
110 7 2 -4.80228 0.719197 -1.77847 0 0 1
111 7 2 -4.54725 1.34553 -1.11421 0 0 1
112 7 2 -4.07012 0.912431 -0.418783 0 0 1
113 8 1 4.52209 0.905313 1.70571 0 -1 0
114 8 1 5.40203 0.86429 1.2935 0 -1 0
115 8 1 5.97845 1.08857 2.05483 0 -1 0
116 8 1 5.3775 1.0028 -1.45692 0 -1 1
117 8 1 5.39802 1.85373 -1.83406 0 -1 1
118 8 1 5.92404 -1.91423 1.76671 0 0 0
119 8 1 5.44952 -1.12311 1.34463 0 0 0
120 8 1 5.81063 -0.884265 0.455076 0 0 0
121 8 2 5.54847 0.0609775 0.331793 0 0 0
122 8 2 5.13726 -0.588894 -0.244951 0 0 0
123 8 2 4.91676 -1.50779 -0.527653 0 0 0
124 8 2 5.04217 -1.41502 -1.46656 0 0 0
125 8 2 5.27696 -0.560003 -1.78654 0 0 0
126 8 2 4.35441 -0.571056 -2.01284 0 0 0
127 8 2 3.75098 -0.275521 -1.32512 0 0 0
128 8 2 4.31487 0.439818 -1.13332 0 0 0
ITEM: TIMESTEP
7200
ITEM: NUMBER OF ATOMS
128
ITEM: BOX BOUNDS pp pp pp
-6.2010977310080699e+00 6.2010977310080699e+00
-2.1200334123104558e+00 2.1200334123104558e+00
-2.1200334123104558e+00 2.1200334123104558e+00
ITEM: ATOMS id mol type x y z ix iy iz
1 1 1 -5.2644 -2.04758 -0.27952 0 1 0
2 1 1 -5.94109 -1.89823 0.400735 0 1 0
3 1 1 -5.7742 -1.98392 1.33955 0 1 0
4 1 1 -4.89123 -1.7507 1.44233 0 1 0
5 1 1 -4.40977 -2.03976 0.607515 0 1 0
6 1 1 -3.85542 1.53458 1.0332 0 0 0
7 1 1 -3.37883 1.042 0.386632 0 0 0
8 1 1 -2.62884 0.538874 0.311386 0 0 0
9 1 2 -2.93202 -0.2751 -0.175845 0 0 0
10 1 2 -2.30796 -0.806036 -0.713313 0 0 0
11 1 2 -1.69686 -0.194382 -0.344856 0 0 0
12 1 2 -1.48494 -0.140183 0.589877 0 0 0
13 1 2 -2.00554 -1.00797 0.538507 0 0 0
14 1 2 -1.49765 -1.66327 0.0169213 0 0 0
15 1 2 -0.614675 -1.42777 -0.416922 0 0 0
16 1 2 0.21508 -1.75314 -0.00456111 0 0 0
17 2 1 -0.328182 -1.86034 2.06432 0 0 -1
18 2 1 -1.02268 1.67106 2.0325 0 -1 -1
19 2 1 -1.45813 -1.89985 1.35573 0 0 -1
20 2 1 -1.39271 -1.53567 -2.03602 0 0 0
21 2 1 -1.4256 -0.761395 1.67841 0 0 -1
22 2 1 -0.660096 -0.516699 1.10141 0 0 -1
23 2 1 0.23736 -0.925708 1.10014 0 0 -1
24 2 1 0.958822 -0.772877 0.397161 0 0 -1
25 2 2 1.80881 -1.14451 0.623434 0 0 -1
26 2 2 1.93122 -0.167882 0.702962 0 0 -1
27 2 2 2.1656 0.0973786 1.60592 0 0 -1
28 2 2 2.46913 0.899431 1.19867 0 0 -1
29 2 2 3.30141 0.372911 1.11162 0 0 -1
30 2 2 3.00044 0.418753 0.192109 0 0 -1
31 2 2 2.56082 -0.380685 -0.163037 0 0 -1
32 2 2 1.97226 0.437926 -0.221746 0 0 -1
33 3 1 -1.83172 2.11652 -0.928359 0 0 0
34 3 1 -0.906375 2.06934 -1.20324 0 0 0
35 3 1 0.0131575 1.63565 -1.41384 0 0 0
36 3 1 0.883795 2.09418 -1.61545 0 0 0
37 3 1 1.77731 1.71128 -1.85009 0 0 0
38 3 1 2.47333 1.97531 1.66244 0 0 -1
39 3 1 3.20019 2.05885 -1.901 0 0 0
40 3 1 4.05558 -2.02967 -1.65737 0 1 0
41 3 2 3.84808 -1.86706 1.64568 0 1 -1
42 3 2 4.56121 -1.2435 1.87395 0 1 -1
43 3 2 4.67689 -1.16735 0.88058 0 1 -1
44 3 2 4.21896 -0.629593 0.160801 0 1 -1
45 3 2 3.76262 -0.857802 1.00727 0 1 -1
46 3 2 3.21006 -1.51052 0.593029 0 1 -1
47 3 2 3.18692 1.76601 0.357179 0 0 -1
48 3 2 4.12671 1.85648 0.693845 0 0 -1
49 4 1 -4.71879 0.944279 0.699693 0 0 0
50 4 1 -4.51606 0.350923 1.36263 0 0 0
51 4 1 -3.98781 0.074775 0.588389 0 0 0
52 4 1 -4.73336 -0.365612 0.0596369 0 0 0
53 4 1 -5.21078 -1.18785 0.266129 0 0 0
54 4 1 -4.3656 -1.32888 -0.15032 0 0 0
55 4 1 -3.72041 -1.58219 -0.903415 0 0 0
56 4 1 -3.31352 -1.75813 -0.0135779 0 0 0
57 4 2 -3.33398 1.63222 -0.479875 0 -1 0
58 4 2 -2.42582 1.43609 -0.263492 0 -1 0
59 4 2 -1.66212 0.792781 -0.158317 0 -1 0
60 4 2 -0.697998 0.81327 0.0202396 0 -1 0
61 4 2 0.229642 0.974832 0.576944 0 -1 0
62 4 2 0.844125 1.53933 0.180351 0 -1 0
63 4 2 1.35162 1.95415 -0.522811 0 -1 0
64 4 2 2.21622 1.94329 -0.011702 0 -1 0
65 5 1 -0.391548 0.437222 -1.08612 0 0 0
66 5 1 -0.431354 -0.212096 -0.416092 0 0 0
67 5 1 0.464404 -0.270169 -0.76441 0 0 0
68 5 1 0.832477 0.507019 -0.307788 0 0 0
69 5 1 1.14272 0.98539 -1.18848 0 0 0
70 5 1 1.59462 0.553317 -1.94944 0 0 0
71 5 1 2.18139 0.909119 -1.33265 0 0 0
72 5 1 2.97329 0.575114 -0.864239 0 0 0
73 5 2 3.0415 -0.301163 -1.31114 0 0 0
74 5 2 2.15283 -0.711742 -1.40766 0 0 0
75 5 2 2.82432 -1.33915 -1.02274 0 0 0
76 5 2 3.65649 -1.38907 -0.607792 0 0 0
77 5 2 4.49952 -1.77896 -0.489391 0 0 0
78 5 2 4.13422 1.60351 -0.710484 0 -1 0
79 5 2 3.9241 1.11355 -1.50024 0 -1 0
80 5 2 3.04312 0.896049 -2.00535 0 -1 0
81 6 1 -2.50734 -1.21373 -2.08954 0 1 1
82 6 1 -2.91973 -2.004 -1.86165 0 1 1
83 6 1 -2.40392 1.82706 1.60388 0 0 0
84 6 1 -2.75132 0.863274 1.44743 0 0 0
85 6 1 -1.73338 0.791254 1.33601 0 0 0
86 6 1 -1.97964 0.444846 -2.03697 0 0 1
87 6 1 -1.38785 -0.191482 -1.60252 0 0 1
88 6 1 -0.950225 0.379861 2.02689 0 0 0
89 6 2 -0.165126 0.21454 1.51983 0 0 0
90 6 2 0.123517 0.894449 2.08271 0 0 0
91 6 2 0.850755 1.52348 1.88354 0 0 0
92 6 2 1.19393 0.98083 1.18805 0 0 0
93 6 2 1.62995 1.73913 0.799041 0 0 0
94 6 2 1.01178 -1.75576 0.863946 0 1 0
95 6 2 1.04805 -1.31087 1.68494 0 1 0
96 6 2 0.771668 -1.05196 -1.66411 0 1 1
97 7 1 -5.9672 0.660843 0.235535 0 -1 1
98 7 1 5.70893 0.465373 -0.38228 -1 -1 1
99 7 1 5.48935 1.39426 -0.471416 -1 -1 1
100 7 1 5.85794 -2.07458 -0.998213 -1 0 1
101 7 1 -5.94608 -1.75331 -1.69121 0 0 1
102 7 1 -5.35426 -1.11902 -1.26311 0 0 1
103 7 1 -4.69569 -1.79997 -1.18432 0 0 1
104 7 1 -4.55747 -1.2446 -1.9383 0 0 1
105 7 2 -4.39326 -0.356344 -1.62286 0 0 1
106 7 2 -3.63511 -0.158708 -1.05471 0 0 1
107 7 2 -2.98512 0.481402 -0.968311 0 0 1
108 7 2 -3.2367 0.483448 -1.8675 0 0 1
109 7 2 -3.82551 1.22228 -1.87784 0 0 1
110 7 2 -4.79342 1.19861 -1.95988 0 0 1
111 7 2 -5.3662 1.02991 -1.23246 0 0 1
112 7 2 -4.85993 1.0113 -0.444561 0 0 1
113 8 1 4.82533 0.420515 1.04879 0 -1 0
114 8 1 5.43585 1.11531 1.15896 0 -1 0
115 8 1 -6.13944 0.772947 1.6944 1 -1 0
116 8 1 6.14206 1.24901 -1.73931 0 -1 1
117 8 1 5.25387 1.46135 -1.97575 0 -1 1
118 8 1 5.3791 -1.8536 1.96079 0 0 0
119 8 1 5.44458 -1.80223 1.0122 0 0 0
120 8 1 5.8717 -1.00036 1.04206 0 0 0
121 8 2 6.14008 -0.264956 0.559512 0 0 0
122 8 2 5.20051 -0.208214 0.312317 0 0 0
123 8 2 5.60329 -0.547247 -0.464849 0 0 0
124 8 2 5.10116 -1.00644 -1.12482 0 0 0
125 8 2 5.35615 -0.360726 -1.83156 0 0 0
126 8 2 4.60248 0.101293 -1.51635 0 0 0
127 8 2 4.40452 -0.338978 -0.728163 0 0 0
128 8 2 4.40747 0.601837 -0.655601 0 0 0
ITEM: TIMESTEP
7400
ITEM: NUMBER OF ATOMS
128
ITEM: BOX BOUNDS pp pp pp
-6.2010977310080699e+00 6.2010977310080699e+00
-2.1200334123104558e+00 2.1200334123104558e+00
-2.1200334123104558e+00 2.1200334123104558e+00
ITEM: ATOMS id mol type x y z ix iy iz
1 1 1 -5.87838 -1.96198 -0.114023 0 1 0
2 1 1 6.16918 1.61732 0.537808 -1 0 0
3 1 1 -5.66758 -1.93752 0.959609 0 1 0
4 1 1 -4.90885 -1.73327 1.51693 0 1 0
5 1 1 -4.42641 -1.90014 0.722414 0 1 0
6 1 1 -3.98898 1.5457 0.943077 0 0 0
7 1 1 -3.62286 0.933102 0.341805 0 0 0
8 1 1 -3.16953 0.15711 0.662363 0 0 0
9 1 2 -2.87179 -0.512382 -0.0107375 0 0 0
10 1 2 -2.4934 -0.5693 -0.936378 0 0 0
11 1 2 -2.13178 0.181432 -0.457116 0 0 0
12 1 2 -2.03361 -0.190375 0.408591 0 0 0
13 1 2 -1.64017 -0.997077 0.647332 0 0 0
14 1 2 -1.343 -0.965854 -0.26158 0 0 0
15 1 2 -0.773731 -1.67312 -0.487776 0 0 0
16 1 2 -0.235194 -1.80067 0.341514 0 0 0
17 2 1 -0.297881 1.92331 1.82428 0 -1 -1
18 2 1 -1.15964 1.4883 1.89454 0 -1 -1
19 2 1 -1.46592 -2.03412 1.37891 0 0 -1
20 2 1 -1.58625 -1.81206 -1.94349 0 0 0
21 2 1 -1.68747 -0.918691 1.82772 0 0 -1
22 2 1 -0.85765 -0.948764 1.32122 0 0 -1
23 2 1 0.0925721 -0.669593 1.23732 0 0 -1
24 2 1 0.949688 -0.385376 0.965453 0 0 -1
25 2 2 1.70154 -0.897758 0.70583 0 0 -1
26 2 2 1.92428 0.0640432 0.774146 0 0 -1
27 2 2 1.82548 -0.15074 1.72693 0 0 -1
28 2 2 2.25431 0.685406 1.69927 0 0 -1
29 2 2 3.01764 0.139432 1.34665 0 0 -1
30 2 2 3.10378 0.219542 0.432433 0 0 -1
31 2 2 2.70321 -0.203378 -0.320866 0 0 -1
32 2 2 2.11473 0.590642 -0.221867 0 0 -1
33 3 1 -0.950028 1.43973 -1.32466 0 0 0
34 3 1 -0.0417779 1.75744 -1.2664 0 0 0
35 3 1 0.725952 -1.89971 -1.0052 0 1 0
36 3 1 1.54046 -1.49294 -1.1798 0 1 0
37 3 1 1.53262 2.05489 -1.80894 0 0 0
38 3 1 2.08681 -1.9066 1.74582 0 1 -1
39 3 1 3.04026 -2.02284 -2.01349 0 1 0
40 3 1 3.95024 -2.05909 1.84755 0 1 -1
41 3 2 3.90049 -1.01961 1.86824 0 1 -1
42 3 2 4.52478 -0.62696 1.26572 0 1 -1
43 3 2 4.87744 -1.27283 0.653684 0 1 -1
44 3 2 4.06306 -0.867139 0.364961 0 1 -1
45 3 2 3.21864 -1.15189 0.516214 0 1 -1
46 3 2 3.31133 -2.0728 0.303091 0 1 -1
47 3 2 3.19483 1.69511 1.14827 0 0 -1
48 3 2 3.98775 1.40349 0.718232 0 0 -1
49 4 1 -4.55903 0.652172 0.706724 0 0 0
50 4 1 -4.68829 -0.0393615 1.35957 0 0 0
51 4 1 -4.10902 -0.462847 0.755712 0 0 0
52 4 1 -4.08721 -0.0351172 -0.103431 0 0 0
53 4 1 -4.9882 -0.367864 -0.0137668 0 0 0
54 4 1 -4.43447 -1.08037 -0.280575 0 0 0
55 4 1 -3.49552 -1.09278 -0.605842 0 0 0
56 4 1 -2.89372 -1.52024 -0.02638 0 0 0
57 4 2 -2.64128 1.76467 -0.0265012 0 -1 0
58 4 2 -2.2573 1.10224 -0.600443 0 -1 0
59 4 2 -1.76414 1.05151 0.264294 0 -1 0
60 4 2 -0.92457 1.31082 0.543313 0 -1 0
61 4 2 -0.408773 1.36575 -0.186522 0 -1 0
62 4 2 0.475779 1.75456 -0.0855282 0 -1 0
63 4 2 1.20956 -1.9697 -0.108436 0 0 0
64 4 2 2.05172 -1.56503 -0.0823714 0 0 0
65 5 1 -1.01967 0.361088 -0.506287 0 0 0
66 5 1 -0.344427 -0.185107 -0.919575 0 0 0
67 5 1 0.559427 -0.555065 -0.730977 0 0 0
68 5 1 0.706047 0.14686 -0.0625816 0 0 0
69 5 1 0.86128 0.860528 -0.695501 0 0 0
70 5 1 1.75575 0.615377 -1.17911 0 0 0
71 5 1 2.42711 1.31025 -1.16612 0 0 0
72 5 1 3.0947 0.685508 -0.997757 0 0 0
73 5 2 3.17974 -0.0354854 -1.58854 0 0 0
74 5 2 2.88615 -0.879399 -2.02734 0 0 0
75 5 2 3.06629 -1.39552 -1.17332 0 0 0
76 5 2 4.06659 -1.46984 -0.903146 0 0 0
77 5 2 4.67814 -2.04623 -0.395188 0 0 0
78 5 2 4.69722 1.83405 -1.33443 0 -1 0
79 5 2 4.06968 1.12461 -1.25759 0 -1 0
80 5 2 3.72441 1.10295 2.09551 0 -1 -1
81 6 1 -2.85297 -1.13486 -1.65768 0 1 1
82 6 1 -3.2434 -1.99559 -1.86261 0 1 1
83 6 1 -2.54104 -1.89959 1.702 0 1 0
84 6 1 -2.96002 1.494 1.58608 0 0 0
85 6 1 -2.1352 1.06874 1.3536 0 0 0
86 6 1 -2.07712 0.791414 -1.93388 0 0 1
87 6 1 -1.71814 0.037301 -1.37359 0 0 1
88 6 1 -1.01089 0.232741 -2.03673 0 0 1
89 6 2 -0.841689 0.1096 1.25237 0 0 0
90 6 2 -0.342488 0.850201 1.46662 0 0 0
91 6 2 0.596082 0.97615 1.90616 0 0 0
92 6 2 0.747618 0.969534 0.993201 0 0 0
93 6 2 1.63676 1.31417 1.07751 0 0 0
94 6 2 1.17181 2.05474 1.48623 0 0 0
95 6 2 0.660744 -1.42258 1.75253 0 1 0
96 6 2 1.06687 -0.665594 -2.02922 0 1 1
97 7 1 -5.53676 0.853825 0.123452 0 -1 1
98 7 1 6.00247 0.812688 -0.282683 -1 -1 1
99 7 1 5.28173 1.34834 -0.4974 -1 -1 1
100 7 1 6.04247 1.81822 -0.922602 -1 -1 1
101 7 1 -5.77163 -1.97349 -1.58571 0 0 1
102 7 1 -5.51044 -1.15849 -2.06756 0 0 1
103 7 1 -4.79171 -1.6135 -1.52849 0 0 1
104 7 1 -4.26942 -1.05024 -2.0175 0 0 1
105 7 2 -4.41882 -0.139803 -1.87199 0 0 1
106 7 2 -3.6954 0.00479756 -1.20368 0 0 1
107 7 2 -3.00759 0.647968 -1.52506 0 0 1
108 7 2 -3.53403 0.642776 1.93226 0 0 0
109 7 2 -4.23144 0.849997 -1.67616 0 0 1
110 7 2 -4.95445 1.46352 -1.55257 0 0 1
111 7 2 -5.33809 0.67839 -1.92164 0 0 1
112 7 2 -4.96376 0.275065 -1.10662 0 0 1
113 8 1 4.68729 0.616302 1.24496 0 -1 0
114 8 1 5.49481 0.114434 1.20475 0 -1 0
115 8 1 -5.99912 0.202277 1.32072 1 -1 0
116 8 1 -6.1361 1.08103 1.73733 1 -1 0
117 8 1 5.66197 1.65458 -1.95588 0 -1 1
118 8 1 4.99984 -1.8531 -2.08191 0 0 1
119 8 1 5.21721 2.10615 1.27508 0 -1 0
120 8 1 5.63862 -1.23555 1.68115 0 0 0
121 8 2 -6.07113 -0.94054 1.00534 1 0 0
122 8 2 6.21449 -0.519447 0.123527 0 0 0
123 8 2 6.02225 -1.17765 -0.574073 0 0 0
124 8 2 5.83973 -1.06645 -1.50802 0 0 0
125 8 2 5.70772 -0.267189 -1.93696 0 0 0
126 8 2 5.05502 0.152133 -1.40119 0 0 0
127 8 2 4.93449 0.252477 -0.469414 0 0 0
128 8 2 4.20187 0.335471 0.152403 0 0 0
ITEM: TIMESTEP
7600
ITEM: NUMBER OF ATOMS
128
ITEM: BOX BOUNDS pp pp pp
-6.2010977310080699e+00 6.2010977310080699e+00
-2.1200334123104558e+00 2.1200334123104558e+00
-2.1200334123104558e+00 2.1200334123104558e+00
ITEM: ATOMS id mol type x y z ix iy iz
1 1 1 -5.58276 1.75283 0.144465 0 0 0
2 1 1 -5.8879 1.21222 0.880137 0 0 0
3 1 1 -5.12153 1.69445 1.06239 0 0 0
4 1 1 -4.53521 1.76593 0.381545 0 0 0
5 1 1 -4.2061 -2.01767 1.13056 0 1 0
6 1 1 -3.49667 1.91497 0.581375 0 0 0
7 1 1 -3.62707 0.976014 0.341572 0 0 0
8 1 1 -3.60476 0.16224 0.920203 0 0 0
9 1 2 -3.16458 -0.603489 0.516301 0 0 0
10 1 2 -2.69857 -0.69918 -0.340972 0 0 0
11 1 2 -2.02939 -0.0343554 -0.0513234 0 0 0
12 1 2 -1.32513 -0.302541 0.545392 0 0 0
13 1 2 -1.9821 -0.969048 0.41332 0 0 0
14 1 2 -1.28524 -1.00628 -0.214802 0 0 0
15 1 2 -0.470973 -1.13902 -0.683068 0 0 0
16 1 2 -0.421364 -0.777621 0.207245 0 0 0
17 2 1 -0.309338 1.50169 1.40885 0 -1 -1
18 2 1 -0.836207 2.08798 0.828586 0 -1 -1
19 2 1 -1.5336 -1.79422 1.30791 0 0 -1
20 2 1 -1.73827 -1.93535 -1.96692 0 0 0
21 2 1 -1.59919 -1.10726 -1.51921 0 0 0
22 2 1 -0.832514 -1.21412 2.13817 0 0 -1
23 2 1 -0.335584 -0.693469 1.52788 0 0 -1
24 2 1 0.574126 -0.55215 1.16021 0 0 -1
25 2 2 1.47387 -0.52387 0.89558 0 0 -1
26 2 2 1.85302 0.319904 1.30523 0 0 -1
27 2 2 1.95979 -0.212689 2.09022 0 0 -1
28 2 2 2.58008 0.473788 2.15688 0 0 -1
29 2 2 3.32865 0.481881 1.42141 0 0 -1
30 2 2 2.94844 0.288814 0.607325 0 0 -1
31 2 2 2.39897 -0.10224 -0.130701 0 0 -1
32 2 2 2.21444 0.847067 -0.0489178 0 0 -1
33 3 1 0.00414671 1.60997 -0.972902 0 0 0
34 3 1 0.950519 1.70024 -1.30554 0 0 0
35 3 1 0.707771 -1.62001 -1.12481 0 1 0
36 3 1 1.33503 -0.897409 -1.10595 0 1 0
37 3 1 1.8539 -1.76536 -1.20157 0 1 0
38 3 1 2.14686 -1.43928 -2.0429 0 1 0
39 3 1 2.9471 -1.79183 1.76538 0 1 -1
40 3 1 3.79074 -1.55582 -2.13933 0 1 0
41 3 2 4.51712 -0.877872 1.91535 0 1 -1
42 3 2 3.98319 -1.09844 1.18815 0 1 -1
43 3 2 4.359 -1.041 0.311741 0 1 -1
44 3 2 3.4004 -1.27317 0.282913 0 1 -1
45 3 2 2.88529 -2.02695 0.233277 0 1 -1
46 3 2 2.70264 1.4603 0.7448 0 0 -1
47 3 2 3.59852 1.90379 1.06289 0 0 -1
48 3 2 3.87881 1.42534 0.283484 0 0 -1
49 4 1 -5.13548 0.18224 1.29737 0 0 0
50 4 1 -5.22203 -0.748974 1.11697 0 0 0
51 4 1 -4.53628 -0.384693 0.497718 0 0 0
52 4 1 -3.89876 -0.0698868 -0.21113 0 0 0
53 4 1 -4.79106 0.0915441 -0.623259 0 0 0
54 4 1 -4.66367 -0.838198 -0.759684 0 0 0
55 4 1 -3.96158 -1.2932 -0.215204 0 0 0
56 4 1 -3.05447 -1.73581 -0.131968 0 0 0
57 4 2 -2.36681 -1.9829 0.469809 0 0 0
58 4 2 -2.04563 -1.81226 -0.473853 0 0 0
59 4 2 -1.75575 1.53243 -0.47333 0 -1 0
60 4 2 -0.839601 1.28936 -0.329987 0 -1 0
61 4 2 0.0299603 1.26603 0.070514 0 -1 0
62 4 2 0.308637 1.97996 0.666016 0 -1 0
63 4 2 1.1771 -1.87723 0.411904 0 0 0
64 4 2 1.58888 -1.05982 -0.0831825 0 0 0
65 5 1 -0.693302 0.241761 -0.19773 0 0 0
66 5 1 0.00532155 0.285603 -0.907564 0 0 0
67 5 1 0.32306 -0.58106 -0.887229 0 0 0
68 5 1 0.600854 -0.220494 -0.0631633 0 0 0
69 5 1 1.25512 0.202749 -0.590683 0 0 0
70 5 1 1.68326 0.971971 -1.13424 0 0 0
71 5 1 2.54361 1.48638 -0.859621 0 0 0
72 5 1 2.9696 0.619107 -0.825782 0 0 0
73 5 2 3.2006 -0.0895073 -1.46593 0 0 0
74 5 2 2.98971 -0.691424 2.11379 0 0 -1
75 5 2 3.25054 -1.17543 -1.32724 0 0 0
76 5 2 4.23791 -1.28995 -1.16733 0 0 0
77 5 2 4.72987 -2.00848 -0.691255 0 0 0
78 5 2 4.62977 1.2976 -0.763803 0 -1 0
79 5 2 4.12643 0.828958 -1.51398 0 -1 0
80 5 2 4.70998 1.27872 2.10873 0 -1 -1
81 6 1 -2.84192 -0.756063 -1.62705 0 1 1
82 6 1 -3.03923 -1.65567 -1.85136 0 1 1
83 6 1 -2.88515 -1.85349 1.46174 0 1 0
84 6 1 -2.7104 1.46294 1.25876 0 0 0
85 6 1 -2.34967 0.60544 1.3397 0 0 0
86 6 1 -1.56121 0.983162 1.83542 0 0 0
87 6 1 -1.95946 0.240446 -1.95612 0 0 1
88 6 1 -1.10182 -0.102262 -1.83685 0 0 1
89 6 2 -0.889259 0.097918 1.46909 0 0 0
90 6 2 -0.187953 0.473074 0.90586 0 0 0
91 6 2 0.146781 0.222294 1.74927 0 0 0
92 6 2 1.01155 0.649061 1.90264 0 0 0
93 6 2 1.38896 1.2471 1.24403 0 0 0
94 6 2 0.790766 1.83761 1.66967 0 0 0
95 6 2 1.09124 -1.54403 1.57026 0 1 0
96 6 2 0.200077 -1.5082 2.05361 0 1 0
97 7 1 -4.91716 1.18396 -0.457915 0 -1 1
98 7 1 -5.65364 0.683047 -0.00350437 0 -1 1
99 7 1 6.01376 1.21272 -0.27522 -1 -1 1
100 7 1 5.8605 1.64961 -1.13314 -1 -1 1
101 7 1 -6.03277 -1.85139 -1.43875 0 0 1
102 7 1 -5.18549 -1.62252 -1.82515 0 0 1
103 7 1 -4.22429 -1.55491 -1.5832 0 0 1
104 7 1 -4.44068 -0.959296 1.93695 0 0 0
105 7 2 -4.21153 -0.28277 -1.65728 0 0 1
106 7 2 -3.85248 0.466881 -1.21169 0 0 1
107 7 2 -3.1722 0.564256 -1.84361 0 0 1
108 7 2 -4.02178 0.905802 2.01189 0 0 0
109 7 2 -4.51179 1.68665 -1.98975 0 0 1
110 7 2 -5.22539 1.23454 -1.55681 0 0 1
111 7 2 -5.33446 0.355524 -1.89872 0 0 1
112 7 2 -5.76934 0.383226 -1.01058 0 0 1
113 8 1 4.79965 0.639778 1.20544 0 -1 0
114 8 1 5.16412 -0.257462 1.29034 0 -1 0
115 8 1 5.95922 0.402037 1.23819 0 -1 0
116 8 1 5.65173 0.973946 1.98132 0 -1 0
117 8 1 5.84927 1.9218 1.91247 0 -1 0
118 8 1 5.02211 -1.88871 1.77723 0 0 0
119 8 1 5.04135 -1.77742 0.852333 0 0 0
120 8 1 5.768 -1.32221 1.16869 0 0 0
121 8 2 -5.97481 -1.13652 0.468792 1 0 0
122 8 2 -6.18199 -0.765998 -0.421218 1 0 0
123 8 2 5.54581 -1.09011 -0.98297 0 0 0
124 8 2 5.62357 -1.24385 -1.97197 0 0 0
125 8 2 5.80533 -0.373096 -1.7219 0 0 0
126 8 2 5.10849 0.186301 -1.33302 0 0 0
127 8 2 4.93456 0.0850721 -0.337918 0 0 0
128 8 2 4.29492 0.268771 0.374668 0 0 0
ITEM: TIMESTEP
7800
ITEM: NUMBER OF ATOMS
128
ITEM: BOX BOUNDS pp pp pp
-6.2010977310080699e+00 6.2010977310080699e+00
-2.1200334123104558e+00 2.1200334123104558e+00
-2.1200334123104558e+00 2.1200334123104558e+00
ITEM: ATOMS id mol type x y z ix iy iz
1 1 1 -5.92059 1.96736 0.824096 0 0 0
2 1 1 -5.73775 1.00629 0.979637 0 0 0
3 1 1 -4.83869 0.794328 0.804234 0 0 0
4 1 1 -4.51983 1.79777 0.776894 0 0 0
5 1 1 -3.92856 -1.76164 1.03026 0 1 0
6 1 1 -3.62438 1.79179 0.378996 0 0 0
7 1 1 -3.5305 0.839707 0.671424 0 0 0
8 1 1 -3.67948 -0.0571953 1.07204 0 0 0
9 1 2 -3.34625 -0.641902 0.373362 0 0 0
10 1 2 -2.75091 0.0734018 0.443201 0 0 0
11 1 2 -2.06309 0.418924 -0.1641 0 0 0
12 1 2 -1.78184 0.0885813 0.685268 0 0 0
13 1 2 -1.90772 -0.886595 0.577445 0 0 0
14 1 2 -1.52539 -0.913173 -0.350389 0 0 0
15 1 2 -0.714994 -1.22682 -0.68317 0 0 0
16 1 2 0.131122 -1.3365 -0.297835 0 0 0
17 2 1 -1.31146 1.76625 1.17938 0 -1 -1
18 2 1 -1.09443 -1.58129 1.10314 0 0 -1
19 2 1 -1.98893 -1.48349 1.47601 0 0 -1
20 2 1 -1.68187 -1.9167 -1.94865 0 0 0
21 2 1 -1.51965 -0.877248 -2.01921 0 0 0
22 2 1 -0.531104 -0.95741 -1.9342 0 0 0
23 2 1 -0.0746357 -1.00738 1.44487 0 0 -1
24 2 1 0.611953 -1.28818 0.879071 0 0 -1
25 2 2 1.01526 -0.756285 1.4965 0 0 -1
26 2 2 1.84495 -0.316034 1.74392 0 0 -1
27 2 2 2.15186 0.475609 -2.0128 0 0 0
28 2 2 3.06376 0.401354 1.9862 0 0 -1
29 2 2 3.24944 0.851256 1.06984 0 0 -1
30 2 2 3.00463 0.0824814 0.616978 0 0 -1
31 2 2 2.01695 -0.201791 0.664511 0 0 -1
32 2 2 2.07603 0.749257 0.453919 0 0 -1
33 3 1 0.653152 1.34041 -0.819238 0 0 0
34 3 1 0.999917 -2.02074 -1.01157 0 1 0
35 3 1 1.38912 -0.979551 -0.910998 0 1 0
36 3 1 2.14695 -0.512943 -1.33423 0 1 0
37 3 1 2.55336 -1.34637 -1.03538 0 1 0
38 3 1 2.56452 -1.88428 -1.85299 0 1 0
39 3 1 3.11826 -1.26209 1.94633 0 1 -1
40 3 1 3.59327 2.11733 1.85796 0 0 -1
41 3 2 4.13737 -1.32238 1.70618 0 1 -1
42 3 2 3.84226 -0.47399 1.19433 0 1 -1
43 3 2 3.3903 -0.864812 0.451197 0 1 -1
44 3 2 3.3051 -1.802 0.119934 0 1 -1
45 3 2 2.53424 1.91686 0.364316 0 0 -1
46 3 2 2.76054 -2.05794 1.24067 0 1 -1
47 3 2 3.45585 1.78247 0.798196 0 0 -1
48 3 2 3.617 1.44591 -0.0424308 0 0 -1
49 4 1 -5.51156 -0.349725 1.32263 0 0 0
50 4 1 -5.31264 -1.06061 0.725658 0 0 0
51 4 1 -4.73614 -0.373712 0.351758 0 0 0
52 4 1 -4.0824 0.209704 -0.205581 0 0 0
53 4 1 -4.76701 -0.149396 -0.839104 0 0 0
54 4 1 -4.50064 -0.972073 -0.494095 0 0 0
55 4 1 -4.30891 -1.84413 -0.128626 0 0 0
56 4 1 -3.63014 -1.45715 -0.636771 0 0 0
57 4 2 -2.78004 -1.98833 -0.458377 0 0 0
58 4 2 -2.1785 1.6591 -0.933261 0 -1 0
59 4 2 -1.58411 -1.8256 -0.8404 0 0 0
60 4 2 -0.832363 1.7974 -0.789775 0 -1 0
61 4 2 -0.506141 1.63709 0.0833518 0 -1 0
62 4 2 0.2546 1.77095 0.681583 0 -1 0
63 4 2 1.05438 2.10822 0.166053 0 -1 0
64 4 2 1.79214 -1.50846 0.426639 0 0 0
65 5 1 -0.948557 0.218667 -0.299717 0 0 0
66 5 1 -0.146221 0.680462 -0.392832 0 0 0
67 5 1 0.6438 0.310364 -0.907704 0 0 0
68 5 1 1.27246 0.402752 -0.102565 0 0 0
69 5 1 2.06832 0.336783 -0.584144 0 0 0
70 5 1 2.15602 1.21551 -1.09272 0 0 0
71 5 1 2.99527 1.65247 -1.24782 0 0 0
72 5 1 3.05605 0.804452 -0.825103 0 0 0
73 5 2 3.2389 -0.13961 -0.765841 0 0 0
74 5 2 3.8233 -0.626951 -1.38955 0 0 0
75 5 2 3.65906 -1.4938 -0.976915 0 0 0
76 5 2 4.17125 -1.74666 -0.185233 0 0 0
77 5 2 4.62648 2.07548 -0.908552 0 -1 0
78 5 2 4.80182 1.14788 -0.729697 0 -1 0
79 5 2 4.19757 0.671238 -1.24878 0 -1 0
80 5 2 4.01115 1.23134 -2.03726 0 -1 0
81 6 1 -3.0219 -0.361478 -1.33234 0 1 1
82 6 1 -3.14025 -1.16957 -1.85761 0 1 1
83 6 1 -3.14076 2.12086 -1.90047 0 0 1
84 6 1 -2.46495 1.77728 1.68832 0 0 0
85 6 1 -2.20404 0.868951 1.43217 0 0 0
86 6 1 -1.62402 0.966363 -2.09292 0 0 1
87 6 1 -1.5935 0.134764 -1.4116 0 0 1
88 6 1 -0.844531 0.00714973 -2.00213 0 0 1
89 6 2 -0.891152 -0.192709 1.27827 0 0 0
90 6 2 -0.191606 0.0139394 0.667955 0 0 0
91 6 2 0.362536 0.56684 1.22209 0 0 0
92 6 2 0.951684 0.387272 1.93682 0 0 0
93 6 2 1.58887 0.991453 1.60346 0 0 0
94 6 2 0.879429 1.55644 1.93652 0 0 0
95 6 2 0.654096 -1.71487 2.09161 0 1 0
96 6 2 -0.0917405 2.04751 -1.70286 0 0 1
97 7 1 -4.6032 1.31372 -0.787711 0 -1 1
98 7 1 -5.44977 0.905417 -0.512188 0 -1 1
99 7 1 6.03697 1.13597 -0.293649 -1 -1 1
100 7 1 5.99184 1.99925 -0.76611 -1 -1 1
101 7 1 -5.49917 1.90571 -1.02388 0 -1 1
102 7 1 -4.66191 -1.93266 -1.1856 0 0 1
103 7 1 -4.45625 -1.39398 -1.94649 0 0 1
104 7 1 -4.38932 -0.419919 2.09986 0 0 0
105 7 2 -4.10288 0.349021 -1.69202 0 0 1
106 7 2 -3.22673 0.723253 -1.45416 0 0 1
107 7 2 -3.17693 0.731767 1.82515 0 0 0
108 7 2 -4.14025 0.876688 1.66207 0 0 0
109 7 2 -4.97052 1.34447 1.79388 0 0 0
110 7 2 -5.53019 0.985349 -1.77063 0 0 1
111 7 2 -5.50881 0.0468059 -1.93099 0 0 1
112 7 2 -6.16772 -0.0824879 -1.2571 0 0 1
113 8 1 4.50655 0.898479 1.18494 0 -1 0
114 8 1 4.95373 -0.0210923 1.19345 0 -1 0
115 8 1 5.89396 0.190652 1.32793 0 -1 0
116 8 1 5.92315 1.01499 1.88155 0 -1 0
117 8 1 5.10324 1.46193 1.96967 0 -1 0
118 8 1 5.33766 1.60738 1.01989 0 -1 0
119 8 1 5.63856 -2.11634 0.21421 0 0 0
120 8 1 6.07725 -1.30225 0.39378 0 0 0
121 8 2 -5.85269 -1.45195 -0.439154 1 0 0
122 8 2 5.63393 -1.22839 -0.725226 0 0 0
123 8 2 5.09065 -1.24613 -1.49071 0 0 0
124 8 2 5.84824 -1.01923 -2.03955 0 0 0
125 8 2 5.20036 -0.276227 -1.84207 0 0 0
126 8 2 5.36049 0.474601 -1.286 0 0 0
127 8 2 5.00685 0.175552 -0.494118 0 0 0
128 8 2 4.15463 0.465324 -0.156733 0 0 0
ITEM: TIMESTEP
8000
ITEM: NUMBER OF ATOMS
128
ITEM: BOX BOUNDS pp pp pp
-6.2010977310080699e+00 6.2010977310080699e+00
-2.1200334123104558e+00 2.1200334123104558e+00
-2.1200334123104558e+00 2.1200334123104558e+00
ITEM: ATOMS id mol type x y z ix iy iz
1 1 1 -5.76898 1.57811 1.99569 0 0 0
2 1 1 -5.32103 1.13074 1.32708 0 0 0
3 1 1 -4.65225 1.15014 0.588495 0 0 0
4 1 1 -4.65247 2.05364 0.801879 0 0 0
5 1 1 -3.838 1.75176 0.400751 0 0 0
6 1 1 -3.07275 1.35392 0.701996 0 0 0
7 1 1 -3.48065 0.688488 0.143966 0 0 0
8 1 1 -3.84587 0.116622 0.785859 0 0 0
9 1 2 -3.15167 -0.559914 0.725541 0 0 0
10 1 2 -2.58923 0.182265 0.528521 0 0 0
11 1 2 -2.14396 0.934185 0.14812 0 0 0
12 1 2 -1.39338 0.656691 0.627869 0 0 0
13 1 2 -1.58054 -0.275235 0.392765 0 0 0
14 1 2 -1.62005 -0.509537 -0.549147 0 0 0
15 1 2 -0.71706 -0.652027 -0.734092 0 0 0
16 1 2 -0.259523 -0.806991 0.119255 0 0 0
17 2 1 -1.49888 2.01556 0.553177 0 -1 -1
18 2 1 -1.9682 -1.46921 0.972659 0 0 -1
19 2 1 -2.24807 -1.14917 1.87151 0 0 -1
20 2 1 -2.09011 -1.61098 -1.55057 0 0 0
21 2 1 -1.85493 -0.679701 -1.49381 0 0 0
22 2 1 -1.08029 -1.17971 -1.77902 0 0 0
23 2 1 -0.312038 -1.24233 1.87454 0 0 -1
24 2 1 0.457422 -1.4327 1.23873 0 0 -1
25 2 2 1.24219 -1.60635 1.83193 0 0 -1
26 2 2 1.66976 -0.881482 -1.96265 0 0 0
27 2 2 2.60093 -0.584549 -2.03352 0 0 0
28 2 2 3.4455 -0.25127 1.89788 0 0 -1
29 2 2 3.07603 0.362096 1.3721 0 0 -1
30 2 2 2.84216 0.289249 0.415739 0 0 -1
31 2 2 2.07097 0.200996 0.996264 0 0 -1
32 2 2 1.525 0.966175 0.738395 0 0 -1
33 3 1 0.950584 1.80556 -1.42809 0 0 0
34 3 1 0.99995 -1.59658 -0.949905 0 1 0
35 3 1 1.32326 -0.968634 -0.286748 0 1 0
36 3 1 2.21553 -0.543942 -0.426555 0 1 0
37 3 1 2.38157 -1.18958 -1.07488 0 1 0
38 3 1 2.54619 -1.66289 -1.91154 0 1 0
39 3 1 3.14144 -1.4436 1.61157 0 1 -1
40 3 1 3.98651 -1.23124 -2.10791 0 1 0
41 3 2 4.27771 -1.46594 1.20056 0 1 -1
42 3 2 4.04107 -0.592798 0.858127 0 1 -1
43 3 2 3.26785 -0.814167 0.403017 0 1 -1
44 3 2 2.67516 -1.61269 0.0920357 0 1 -1
45 3 2 2.4099 1.72008 0.277223 0 0 -1
46 3 2 2.3848 2.01098 1.18986 0 0 -1
47 3 2 3.36325 1.87706 1.25736 0 0 -1
48 3 2 3.77208 1.37419 0.512439 0 0 -1
49 4 1 -5.76032 -1.24378 1.06351 0 0 0
50 4 1 -5.08043 -1.05752 0.389965 0 0 0
51 4 1 -4.72921 -0.174846 0.231007 0 0 0
52 4 1 -4.0303 0.0284306 -0.49928 0 0 0
53 4 1 -4.81095 -0.336707 -0.905321 0 0 0
54 4 1 -4.37376 -1.14536 -0.648845 0 0 0
55 4 1 -4.28527 -2.09521 -0.779065 0 0 0
56 4 1 -3.34665 -1.99961 -0.95916 0 0 0
57 4 2 -3.20644 1.43665 -0.475318 0 -1 0
58 4 2 -2.30172 1.53032 -0.887794 0 -1 0
59 4 2 -1.57667 -2.09579 -0.578947 0 0 0
60 4 2 -0.667897 1.95071 -0.943973 0 -1 0
61 4 2 -0.501447 2.12001 0.0654435 0 -1 0
62 4 2 0.361837 1.91257 0.505323 0 -1 0
63 4 2 1.1418 1.9065 1.03623 0 -1 0
64 4 2 1.62878 -1.65987 0.707188 0 0 0
65 5 1 -1.04444 1.04927 -0.57533 0 0 0
66 5 1 -0.331681 0.54642 -0.158974 0 0 0
67 5 1 0.33925 0.241037 -0.703887 0 0 0
68 5 1 1.04029 0.901213 -0.754324 0 0 0
69 5 1 1.88857 1.04278 -0.348251 0 0 0
70 5 1 2.82393 1.05044 -0.777069 0 0 0
71 5 1 3.71743 0.779582 -0.617324 0 0 0
72 5 1 3.72864 0.126984 -1.32409 0 0 0
73 5 2 3.55069 -0.400028 -0.59978 0 0 0
74 5 2 4.33943 -1.01318 -0.987457 0 0 0
75 5 2 3.95838 -1.43445 -0.23381 0 0 0
76 5 2 4.3963 2.04883 0.0523413 0 -1 0
77 5 2 4.44477 2.05689 -0.957699 0 -1 0
78 5 2 4.84778 1.30972 -0.505435 0 -1 0
79 5 2 4.49191 0.910125 -1.36723 0 -1 0
80 5 2 4.51793 1.36301 2.04794 0 -1 -1
81 6 1 -3.19535 -0.417701 -1.26427 0 1 1
82 6 1 -3.04332 -1.273 -1.60451 0 1 1
83 6 1 -3.53434 -1.83891 2.08641 0 1 0
84 6 1 -2.7765 -2.0931 1.56837 0 1 0
85 6 1 -2.19867 1.69826 -1.95241 0 0 1
86 6 1 -1.48944 1.13528 -1.55255 0 0 1
87 6 1 -0.991026 0.272847 -1.46001 0 0 1
88 6 1 -0.606244 0.261652 1.87568 0 0 0
89 6 2 -1.08679 -0.383141 1.37639 0 0 0
90 6 2 -0.38483 -0.142176 0.788853 0 0 0
91 6 2 0.427155 0.38588 0.82316 0 0 0
92 6 2 0.917692 0.579283 1.62717 0 0 0
93 6 2 1.38334 1.318 2.0239 0 0 0
94 6 2 0.479917 1.55056 1.89291 0 0 0
95 6 2 0.0494188 2.11778 -1.73918 0 0 1
96 6 2 -0.61126 1.62715 2.06677 0 0 0
97 7 1 -5.12807 1.26942 -0.596799 0 -1 1
98 7 1 -5.55383 0.606211 -0.0391564 0 -1 1
99 7 1 6.07175 0.99091 -0.36775 -1 -1 1
100 7 1 -6.15992 1.6731 -1.00104 0 -1 1
101 7 1 -5.43134 -2.0122 -1.29912 0 0 1
102 7 1 -4.84513 -1.91054 -2.08073 0 0 1
103 7 1 -4.63014 -0.953135 -2.00596 0 0 1
104 7 1 -4.47901 0.0170591 2.10966 0 0 0
105 7 2 -3.7239 0.46745 -1.60451 0 0 1
106 7 2 -2.8284 0.81329 -1.88916 0 0 1
107 7 2 -3.44888 0.999571 1.61183 0 0 0
108 7 2 -4.22469 1.42555 1.99178 0 0 0
109 7 2 -4.9995 0.943682 -1.87573 0 0 1
110 7 2 -5.91775 0.679024 -1.79466 0 0 1
111 7 2 -5.9208 -0.0618553 1.8128 0 0 0
112 7 2 -5.82052 -0.391926 -1.5418 0 0 1
113 8 1 4.42729 0.684983 0.862396 0 -1 0
114 8 1 4.99615 -0.159307 0.960404 0 -1 0
115 8 1 5.83416 0.390486 0.951364 0 -1 0
116 8 1 5.64533 0.977959 1.64571 0 -1 0
117 8 1 5.15457 1.71361 1.30571 0 -1 0
118 8 1 5.58511 1.33168 0.52969 0 -1 0
119 8 1 -6.09272 1.98261 0.263021 1 -1 0
120 8 1 6.10773 -1.33376 0.0280076 0 0 0
121 8 2 -5.73393 -0.957344 -0.607834 1 0 0
122 8 2 5.89064 -1.12694 -1.17191 0 0 0
123 8 2 5.79227 -1.4588 -2.02228 0 0 0
124 8 2 5.27075 -0.747002 1.85196 0 0 -1
125 8 2 4.6417 -0.0235236 -2.0315 0 0 0
126 8 2 5.43309 0.285604 -1.51371 0 0 0
127 8 2 5.15032 -0.057502 -0.633297 0 0 0
128 8 2 4.49832 0.242816 -0.0791355 0 0 0
ITEM: TIMESTEP
8200
ITEM: NUMBER OF ATOMS
128
ITEM: BOX BOUNDS pp pp pp
-6.2010977310080699e+00 6.2010977310080699e+00
-2.1200334123104558e+00 2.1200334123104558e+00
-2.1200334123104558e+00 2.1200334123104558e+00
ITEM: ATOMS id mol type x y z ix iy iz
1 1 1 -6.12318 1.56614 1.17745 0 0 0
2 1 1 -5.16438 1.63443 1.43874 0 0 0
3 1 1 -4.17954 1.67567 1.19201 0 0 0
4 1 1 -4.1352 -1.94053 0.501105 0 1 0
5 1 1 -3.39148 1.64614 0.406973 0 0 0
6 1 1 -3.70664 0.931444 -0.152594 0 0 0
7 1 1 -3.42714 0.143561 0.276144 0 0 0
8 1 1 -3.56917 -0.478232 0.989987 0 0 0
9 1 2 -2.85898 -0.021219 1.42532 0 0 0
10 1 2 -2.16957 0.0165002 0.793594 0 0 0
11 1 2 -2.15831 0.935868 0.564933 0 0 0
12 1 2 -1.21251 0.968832 0.861558 0 0 0
13 1 2 -1.20663 0.143564 0.376063 0 0 0
14 1 2 -1.46008 -0.206813 -0.513944 0 0 0
15 1 2 -0.57388 0.0655618 -0.809391 0 0 0
16 1 2 -0.311817 -0.68486 -0.270771 0 0 0
17 2 1 -1.67867 -1.52761 0.611295 0 0 -1
18 2 1 -2.35509 -1.046 1.11375 0 0 -1
19 2 1 -1.86189 -1.52015 1.70769 0 0 -1
20 2 1 -2.3272 -1.14358 -1.80816 0 0 0
21 2 1 -2.33837 -0.208358 -1.52446 0 0 0
22 2 1 -1.37106 -0.312369 -1.59168 0 0 0
23 2 1 -0.798621 -0.999257 -1.97164 0 0 0
24 2 1 0.223011 -1.20325 -1.94911 0 0 0
25 2 2 0.855686 -1.87163 -1.76836 0 0 0
26 2 2 1.63072 -1.3658 -2.07087 0 0 0
27 2 2 2.14439 -0.588932 2.11603 0 0 -1
28 2 2 3.07095 -0.479512 -2.08207 0 0 0
29 2 2 3.06188 0.474001 -1.84628 0 0 0
30 2 2 2.87917 0.304231 1.48266 0 0 -1
31 2 2 2.21814 0.18252 0.751206 0 0 -1
32 2 2 1.48288 0.608107 0.191819 0 0 -1
33 3 1 0.586927 2.03885 -0.697317 0 0 0
34 3 1 0.901619 -1.30773 -0.530943 0 1 0
35 3 1 1.09197 -0.440524 -0.141221 0 1 0
36 3 1 2.10773 -0.556947 -0.153956 0 1 0
37 3 1 2.8473 -1.00991 -0.628113 0 1 0
38 3 1 2.91354 -1.99357 -1.1648 0 1 0
39 3 1 3.39415 -1.66895 -1.93572 0 1 0
40 3 1 4.06028 -1.78209 1.54922 0 1 -1
41 3 2 4.63827 -1.26277 1.01187 0 1 -1
42 3 2 3.83299 -0.979034 0.613647 0 1 -1
43 3 2 2.88866 -0.749093 0.514628 0 1 -1
44 3 2 2.69592 -1.66332 0.202739 0 1 -1
45 3 2 2.48878 1.65284 0.011299 0 0 -1
46 3 2 2.41445 1.72507 0.960053 0 0 -1
47 3 2 3.24661 1.50695 1.36364 0 0 -1
48 3 2 3.66272 1.21283 0.570254 0 0 -1
49 4 1 -5.97807 -1.41526 1.07015 0 0 0
50 4 1 -5.1223 -0.991744 0.953933 0 0 0
51 4 1 -4.8077 -0.372216 0.193221 0 0 0
52 4 1 -4.60724 -0.0861518 -0.712722 0 0 0
53 4 1 -4.68259 -0.92598 -1.06749 0 0 0
54 4 1 -3.88384 -1.42665 -0.973972 0 0 0
55 4 1 -4.5429 -2.06324 -1.06615 0 0 0
56 4 1 -3.68221 1.73321 -0.97313 0 -1 0
57 4 2 -2.88037 1.23382 -0.959185 0 -1 0
58 4 2 -2.01629 1.5345 -0.657426 0 -1 0
59 4 2 -1.69199 -1.8358 -0.896892 0 0 0
60 4 2 -0.719828 -1.82562 -0.644099 0 0 0
61 4 2 -0.446248 1.91542 0.195567 0 -1 0
62 4 2 0.468148 -2.06352 0.317874 0 0 0
63 4 2 0.969425 -1.97725 1.13316 0 0 0
64 4 2 1.26056 -1.17636 0.707528 0 0 0
65 5 1 -1.045 1.17489 -0.148121 0 0 0
66 5 1 -0.203201 0.749216 -0.0756076 0 0 0
67 5 1 0.455368 0.302882 -0.670027 0 0 0
68 5 1 1.29512 0.568184 -1.04406 0 0 0
69 5 1 2.05361 1.13059 -0.966186 0 0 0
70 5 1 2.32559 0.520717 -0.345394 0 0 0
71 5 1 3.26397 0.396079 -0.458516 0 0 0
72 5 1 4.13231 0.332117 -0.88683 0 0 0
73 5 2 3.98565 -0.589854 -0.976104 0 0 0
74 5 2 4.01247 -1.53905 -1.17827 0 0 0
75 5 2 3.94121 -1.88962 -0.239925 0 0 0
76 5 2 4.55227 1.84696 0.290167 0 -1 0
77 5 2 4.1922 1.28097 -0.314497 0 -1 0
78 5 2 4.85822 1.28675 -0.993156 0 -1 0
79 5 2 4.35313 1.42654 -1.82104 0 -1 0
80 5 2 4.89297 1.88187 1.84305 0 -1 -1
81 6 1 -3.24339 -0.599955 -1.08065 0 1 1
82 6 1 -3.46398 -0.80828 -2.05483 0 1 1
83 6 1 -3.6002 -1.4262 1.42816 0 1 0
84 6 1 -3.12853 1.99695 1.63199 0 0 0
85 6 1 -2.3682 1.52012 1.81423 0 0 0
86 6 1 -1.85129 1.03655 -1.80841 0 0 1
87 6 1 -1.07148 1.07744 -1.26767 0 0 1
88 6 1 -0.363577 0.552798 -1.63815 0 0 1
89 6 2 -0.820499 0.276019 1.84675 0 0 0
90 6 2 -0.349805 0.258456 1.00313 0 0 0
91 6 2 0.578329 0.128486 0.896963 0 0 0
92 6 2 1.05935 -0.0121873 1.63451 0 0 0
93 6 2 1.23185 0.887475 1.90856 0 0 0
94 6 2 0.419923 0.974897 1.40324 0 0 0
95 6 2 -0.2547 1.39686 1.90638 0 0 0
96 6 2 -1.14376 1.8023 1.84254 0 0 0
97 7 1 -5.07237 0.953921 -0.0550594 0 -1 1
98 7 1 -5.66704 0.26196 -0.379935 0 -1 1
99 7 1 -6.0062 1.02875 -0.837893 0 -1 1
100 7 1 5.94109 1.79518 -1.14487 -1 -1 1
101 7 1 -5.55379 -2.0143 -1.22784 0 0 1
102 7 1 -5.21803 -1.65382 -2.01709 0 0 1
103 7 1 -4.67911 -0.970082 1.88431 0 0 0
104 7 1 -4.27347 -0.114654 1.96377 0 0 0
105 7 2 -3.79111 0.295142 -1.44752 0 0 1
106 7 2 -2.96781 0.632872 -1.79429 0 0 1
107 7 2 -3.63456 0.963577 1.76051 0 0 0
108 7 2 -4.44559 0.947414 -1.96011 0 0 1
109 7 2 -5.38333 1.18191 -1.78254 0 0 1
110 7 2 -5.95255 0.757722 1.74502 0 0 0
111 7 2 -5.59384 0.186166 1.05618 0 0 0
112 7 2 -5.37878 -0.0824476 1.96874 0 0 0
113 8 1 4.5058 0.416547 0.915532 0 -1 0
114 8 1 5.21141 0.482376 1.62103 0 -1 0
115 8 1 5.56397 0.335981 0.694727 0 -1 0
116 8 1 5.22113 1.28746 0.814732 0 -1 0
117 8 1 5.64889 -2.07435 0.498904 0 0 0
118 8 1 5.62578 1.45787 -0.131939 0 -1 0
119 8 1 -5.97063 2.03589 -0.174901 1 -1 0
120 8 1 5.98175 -1.38125 -0.245422 0 0 0
121 8 2 -5.57988 -1.05107 -0.541991 1 0 0
122 8 2 -5.79796 -0.58295 -1.38629 1 0 0
123 8 2 6.10295 -0.864794 1.98734 0 0 -1
124 8 2 5.38625 -1.33149 -1.88654 0 0 0
125 8 2 4.7744 -0.573406 -1.75594 0 0 0
126 8 2 5.53909 -0.0928331 -1.45359 0 0 0
127 8 2 5.70151 -0.237156 -0.515703 0 0 0
128 8 2 5.66581 -0.615357 0.321688 0 0 0
ITEM: TIMESTEP
8400
ITEM: NUMBER OF ATOMS
128
ITEM: BOX BOUNDS pp pp pp
-6.2010977310080699e+00 6.2010977310080699e+00
-2.1200334123104558e+00 2.1200334123104558e+00
-2.1200334123104558e+00 2.1200334123104558e+00
ITEM: ATOMS id mol type x y z ix iy iz
1 1 1 -5.61617 -1.67717 0.434908 0 1 0
2 1 1 -5.05888 -2.04464 1.17683 0 1 0
3 1 1 -4.11267 1.96361 1.19263 0 0 0
4 1 1 -3.7973 1.71621 0.301322 0 0 0
5 1 1 -3.18763 1.07782 0.0948259 0 0 0
6 1 1 -4.06408 0.76743 -0.112595 0 0 0
7 1 1 -3.75776 -0.00849697 0.384885 0 0 0
8 1 1 -3.39349 -0.740739 0.899186 0 0 0
9 1 2 -3.05565 -0.186221 1.57167 0 0 0
10 1 2 -2.71364 0.127882 0.680578 0 0 0
11 1 2 -2.11408 0.83235 0.523175 0 0 0
12 1 2 -1.45407 0.523332 1.14294 0 0 0
13 1 2 -1.34343 -0.0247311 0.418875 0 0 0
14 1 2 -1.3188 -0.09189 -0.582818 0 0 0
15 1 2 -0.568961 -0.658679 -0.461808 0 0 0
16 1 2 -0.109157 -0.393639 0.304817 0 0 0
17 2 1 -2.12359 -0.81285 0.0643874 0 0 -1
18 2 1 -2.10166 -1.06554 0.963369 0 0 -1
19 2 1 -1.59204 -1.0715 1.83162 0 0 -1
20 2 1 -2.07164 -0.829695 -1.61956 0 0 0
21 2 1 -2.25221 0.0564406 -1.49633 0 0 0
22 2 1 -1.32333 -0.0555806 -1.63266 0 0 0
23 2 1 -0.472959 -0.613764 -1.87762 0 0 0
24 2 1 -0.0543859 -1.17464 -1.27914 0 0 0
25 2 2 0.627396 -1.4983 -1.84951 0 0 0
26 2 2 1.3746 -2.06533 -1.56774 0 0 0
27 2 2 2.09033 -1.45687 -1.84668 0 0 0
28 2 2 2.43535 -0.562369 -1.67805 0 0 0
29 2 2 3.01623 -0.0173667 2.04696 0 0 -1
30 2 2 2.08786 0.321036 -2.08979 0 0 0
31 2 2 2.35486 -0.382661 1.42642 0 0 -1
32 2 2 1.77461 0.0700654 0.728134 0 0 -1
33 3 1 0.171681 2.07066 -0.980967 0 0 0
34 3 1 0.477878 -1.40547 -0.428417 0 1 0
35 3 1 1.04465 -0.789599 -1.05897 0 1 0
36 3 1 1.734 -0.918756 -0.381763 0 1 0
37 3 1 2.71718 -1.11963 -0.737111 0 1 0
38 3 1 3.23611 -1.71543 -1.211 0 1 0
39 3 1 3.1984 -1.74625 2.00644 0 1 -1
40 3 1 3.63291 -2.08266 1.23014 0 1 -1
41 3 2 4.13222 -1.30393 1.40252 0 1 -1
42 3 2 4.08854 -0.879992 0.53292 0 1 -1
43 3 2 3.23131 -0.991202 0.99368 0 1 -1
44 3 2 2.56771 -1.70511 0.987595 0 1 -1
45 3 2 2.16154 2.0789 0.246463 0 0 -1
46 3 2 2.2654 1.18515 0.781432 0 0 -1
47 3 2 2.96193 0.996404 1.41513 0 0 -1
48 3 2 3.57294 0.687009 0.769827 0 0 -1
49 4 1 -5.66199 -0.978969 1.41287 0 0 0
50 4 1 -5.1873 -0.750597 0.635706 0 0 0
51 4 1 -4.54457 -1.41225 0.344328 0 0 0
52 4 1 -3.92924 -0.965727 -0.186114 0 0 0
53 4 1 -4.13295 -0.926515 -1.15369 0 0 0
54 4 1 -4.46106 -1.74595 -0.645544 0 0 0
55 4 1 -4.28318 1.57288 -0.834227 0 -1 0
56 4 1 -3.34855 1.51959 -0.964155 0 -1 0
57 4 2 -2.45496 1.80982 -0.968841 0 -1 0
58 4 2 -1.97523 -1.91996 -0.34033 0 0 0
59 4 2 -1.47843 -1.62911 -1.09518 0 0 0
60 4 2 -0.634726 -1.64045 -0.535982 0 0 0
61 4 2 -0.458441 -1.92813 0.406828 0 0 0
62 4 2 0.490734 -1.7691 0.559404 0 0 0
63 4 2 0.776679 -1.43342 1.41155 0 0 0
64 4 2 1.65477 -1.12961 1.07936 0 0 0
65 5 1 -0.585068 1.22943 -0.277944 0 0 0
66 5 1 0.292061 1.22613 0.0585653 0 0 0
67 5 1 0.91042 1.15771 -0.691809 0 0 0
68 5 1 1.42644 0.651735 -1.26281 0 0 0
69 5 1 2.18451 1.34085 -1.16802 0 0 0
70 5 1 3.05943 0.904862 -1.13114 0 0 0
71 5 1 3.46778 0.086791 -0.716559 0 0 0
72 5 1 4.34442 -0.197486 -0.542155 0 0 0
73 5 2 4.48244 -0.890363 -1.19565 0 0 0
74 5 2 4.46653 -1.26299 -0.376042 0 0 0
75 5 2 3.83553 -1.97998 -0.141315 0 0 0
76 5 2 4.32667 1.631 0.480523 0 -1 0
77 5 2 4.20456 1.22221 -0.345119 0 -1 0
78 5 2 4.05316 1.20096 -1.32856 0 -1 0
79 5 2 4.09049 1.71182 -2.08155 0 -1 0
80 5 2 4.80525 -1.93181 2.03021 0 0 -1
81 6 1 -3.12375 -0.500474 -1.08547 0 1 1
82 6 1 -3.02776 -1.04248 -1.87111 0 1 1
83 6 1 -2.78356 -1.65701 1.61168 0 1 0
84 6 1 -2.45804 1.68714 1.64313 0 0 0
85 6 1 -2.388 0.702781 1.60423 0 0 0
86 6 1 -1.67529 1.13309 2.06679 0 0 0
87 6 1 -1.01645 1.22153 -1.47284 0 0 1
88 6 1 -0.106221 1.36662 -1.66085 0 0 1
89 6 2 -0.429142 0.609001 2.04907 0 0 0
90 6 2 -0.421723 -0.0644338 1.3442 0 0 0
91 6 2 0.476012 -0.314038 1.26759 0 0 0
92 6 2 1.06836 -0.102834 2.02995 0 0 0
93 6 2 0.817061 0.755548 1.68942 0 0 0
94 6 2 0.780978 1.66392 2.00302 0 0 0
95 6 2 -0.105847 1.76711 1.63264 0 0 0
96 6 2 -0.356747 -1.68574 2.02632 0 1 0
97 7 1 -5.30968 -0.0138528 -0.150314 0 -1 1
98 7 1 -5.96148 0.35685 -0.726776 0 -1 1
99 7 1 -6.13724 0.839565 -1.52942 0 -1 1
100 7 1 5.91449 1.60034 -2.0333 -1 -1 1
101 7 1 -6.17001 -1.77071 2.05117 0 0 0
102 7 1 -5.26646 -1.91183 -1.92908 0 0 1
103 7 1 -4.64053 -1.23926 2.02491 0 0 0
104 7 1 -4.37428 -0.486314 1.53643 0 0 0
105 7 2 -4.26014 -0.0970877 -1.8264 0 0 1
106 7 2 -3.40137 0.347775 -1.82549 0 0 1
107 7 2 -3.88528 1.0982 1.98633 0 0 0
108 7 2 -4.85203 1.19507 -1.98173 0 0 1
109 7 2 -5.61038 1.4461 1.74922 0 0 0
110 7 2 6.12536 0.83896 1.49056 -1 0 0
111 7 2 -5.69007 0.888232 0.735479 0 0 0
112 7 2 -5.34339 0.32585 1.52252 0 0 0
113 8 1 3.9417 -0.19098 1.46206 0 -1 0
114 8 1 4.36487 0.623571 1.59788 0 -1 0
115 8 1 4.92023 1.03291 0.868431 0 -1 0
116 8 1 5.79636 1.59374 0.762922 0 -1 0
117 8 1 5.34724 -2.08789 0.208119 0 0 0
118 8 1 5.51725 1.44285 -0.365577 0 -1 0
119 8 1 6.10675 1.83982 -0.995439 0 -1 0
120 8 1 5.7702 -1.57387 -0.56537 0 0 0
121 8 2 -5.906 -1.04433 -0.870723 1 0 0
122 8 2 -5.36929 -0.809101 -1.62347 1 0 0
123 8 2 -6.12193 -0.301271 -1.73848 1 0 0
124 8 2 5.63183 -0.881986 -2.12035 0 0 0
125 8 2 5.07954 -0.127367 -1.93392 0 0 0
126 8 2 5.33473 -0.182352 -1.01934 0 0 0
127 8 2 5.52255 -0.338207 -0.0439891 0 0 0
128 8 2 -6.16204 -0.0704194 0.547662 1 0 0
ITEM: TIMESTEP
8600
ITEM: NUMBER OF ATOMS
128
ITEM: BOX BOUNDS pp pp pp
-6.2010977310080699e+00 6.2010977310080699e+00
-2.1200334123104558e+00 2.1200334123104558e+00
-2.1200334123104558e+00 2.1200334123104558e+00
ITEM: ATOMS id mol type x y z ix iy iz
1 1 1 -5.47335 -1.84897 0.851065 0 1 0
2 1 1 -4.6539 1.91501 0.732749 0 0 0
3 1 1 -3.95414 1.39694 1.09117 0 0 0
4 1 1 -3.54206 1.85486 0.329098 0 0 0
5 1 1 -3.04113 1.04546 0.238806 0 0 0
6 1 1 -3.73206 0.403177 0.223469 0 0 0
7 1 1 -4.13552 -0.261526 0.872564 0 0 0
8 1 1 -3.416 -0.843759 0.894095 0 0 0
9 1 2 -2.83609 -0.244994 1.38024 0 0 0
10 1 2 -2.48487 0.403608 0.680598 0 0 0
11 1 2 -2.14583 0.76558 -0.165296 0 0 0
12 1 2 -1.73709 1.13195 0.635846 0 0 0
13 1 2 -1.48688 0.236661 0.430001 0 0 0
14 1 2 -0.830364 0.479658 -0.247117 0 0 0
15 1 2 -0.472938 -0.384022 -0.149195 0 0 0
16 1 2 0.37722 0.0978042 0.0436397 0 0 0
17 2 1 -2.21099 -0.514828 0.165407 0 0 -1
18 2 1 -1.89644 -1.16175 0.86289 0 0 -1
19 2 1 -1.93835 -0.595183 1.70083 0 0 -1
20 2 1 -1.7494 -0.852402 -1.66417 0 0 0
21 2 1 -1.90432 0.0475225 -1.46681 0 0 0
22 2 1 -1.07777 -0.112927 -1.92575 0 0 0
23 2 1 -0.275098 -0.389851 -1.41879 0 0 0
24 2 1 -0.174887 -1.07164 -1.99586 0 0 0
25 2 2 0.501658 -1.58325 -1.56878 0 0 0
26 2 2 1.30718 -1.89185 -1.0927 0 0 0
27 2 2 2.16212 1.93191 -1.39636 0 -1 0
28 2 2 2.27381 -1.45075 -1.87856 0 0 0
29 2 2 2.42238 -0.555874 -1.45736 0 0 0
30 2 2 2.4989 0.173699 -2.04993 0 0 0
31 2 2 2.22178 -0.601724 1.67841 0 0 -1
32 2 2 1.9293 -0.457173 0.725583 0 0 -1
33 3 1 0.331912 -1.91198 -0.450297 0 1 0
34 3 1 0.473022 -0.965059 -0.592456 0 1 0
35 3 1 1.29365 -0.635015 -0.860547 0 1 0
36 3 1 2.09455 -0.753167 -0.511608 0 1 0
37 3 1 2.71649 -1.47023 -0.282045 0 1 0
38 3 1 3.2231 -1.37746 -1.10072 0 1 0
39 3 1 3.53813 -1.78754 -1.98247 0 1 0
40 3 1 3.65163 2.03266 1.41876 0 0 -1
41 3 2 4.18783 -1.63881 0.921304 0 1 -1
42 3 2 3.74278 -0.821228 1.04145 0 1 -1
43 3 2 2.9055 -1.26364 0.864686 0 1 -1
44 3 2 2.03628 -1.60885 1.09049 0 1 -1
45 3 2 1.8123 1.76152 0.754734 0 0 -1
46 3 2 1.76952 0.847265 0.608703 0 0 -1
47 3 2 2.6455 1.01601 0.306246 0 0 -1
48 3 2 2.88286 0.090748 0.226079 0 0 -1
49 4 1 -5.27505 0.021659 1.03275 0 0 0
50 4 1 -5.23142 -0.320164 0.139893 0 0 0
51 4 1 -4.50197 -0.936748 -0.00830519 0 0 0
52 4 1 -3.87595 -1.49671 -0.533626 0 0 0
53 4 1 -4.69065 -1.35488 -1.01971 0 0 0
54 4 1 -4.61814 1.89302 -0.992636 0 -1 0
55 4 1 -3.92996 1.32462 -0.56374 0 -1 0
56 4 1 -3.09649 1.53578 -0.98809 0 -1 0
57 4 2 -2.25723 1.87188 -1.17812 0 -1 0
58 4 2 -2.1496 -1.5252 -0.641313 0 0 0
59 4 2 -1.28404 -1.85387 -0.919457 0 0 0
60 4 2 -1.08554 -1.85781 0.0562318 0 0 0
61 4 2 -0.372853 -1.41251 0.471274 0 0 0
62 4 2 0.310006 -2.08251 0.689432 0 0 0
63 4 2 0.807841 -1.50562 1.22323 0 0 0
64 4 2 1.28916 -1.1937 0.461324 0 0 0
65 5 1 0.0218409 1.06572 -0.198446 0 0 0
66 5 1 0.631958 1.04615 0.611043 0 0 0
67 5 1 0.932005 1.57419 -0.233599 0 0 0
68 5 1 1.37304 1.29616 -1.00661 0 0 0
69 5 1 2.2206 1.29729 -0.58221 0 0 0
70 5 1 2.83302 0.771431 -1.07501 0 0 0
71 5 1 3.54307 0.235031 -1.36866 0 0 0
72 5 1 3.98719 -0.633049 -1.19275 0 0 0
73 5 2 4.44944 -1.4124 -0.814521 0 0 0
74 5 2 4.71229 -1.86349 -0.0292453 0 0 0
75 5 2 3.79466 -1.38071 -0.0082654 0 0 0
76 5 2 3.52942 2.11534 -0.515454 0 -1 0
77 5 2 3.7925 1.22575 -0.424688 0 -1 0
78 5 2 4.50034 1.22297 -1.06699 0 -1 0
79 5 2 4.42669 1.77444 -1.80475 0 -1 0
80 5 2 5.26353 -1.99898 -1.5733 0 0 0
81 6 1 -3.11638 -0.858957 -1.0008 0 1 1
82 6 1 -3.09373 -1.36045 -1.79307 0 1 1
83 6 1 -2.53283 -1.9318 1.9745 0 1 0
84 6 1 -2.31976 1.66155 1.34347 0 0 0
85 6 1 -2.0647 1.024 2.08407 0 0 0
86 6 1 -1.37882 1.43177 -1.70033 0 0 1
87 6 1 -0.970939 1.425 -0.827599 0 0 1
88 6 1 -0.328741 0.769367 -1.15979 0 0 1
89 6 2 -0.479831 0.858778 2.0772 0 0 0
90 6 2 -0.381484 0.143876 1.42302 0 0 0
91 6 2 0.414158 -0.294984 1.9022 0 0 0
92 6 2 0.525233 0.594428 -2.05937 0 0 1
93 6 2 1.20187 0.615138 1.50888 0 0 0
94 6 2 1.03227 1.58092 1.63834 0 0 0
95 6 2 0.142589 1.74333 1.7351 0 0 0
96 6 2 -0.336611 -1.70231 1.44763 0 1 0
97 7 1 -5.19984 0.346628 -0.804398 0 -1 1
98 7 1 -5.8556 0.938445 -1.0464 0 -1 1
99 7 1 -6.15682 1.40668 -1.78509 0 -1 1
100 7 1 5.7396 1.9107 1.77633 -1 -1 0
101 7 1 6.14398 -1.38933 1.91609 -1 0 0
102 7 1 -5.70901 -2.11036 1.7765 0 0 0
103 7 1 -4.74545 -1.89733 1.84927 0 0 0
104 7 1 -4.38299 -1.07947 -2.07275 0 0 1
105 7 2 -4.74659 -0.224206 2.07856 0 0 0
106 7 2 -3.82879 0.0434444 -1.89757 0 0 1
107 7 2 -3.58743 0.960993 -1.96216 0 0 1
108 7 2 -4.50017 1.03728 -1.72906 0 0 1
109 7 2 -5.13362 1.09807 1.74748 0 0 0
110 7 2 -5.94803 0.875236 1.1563 0 0 0
111 7 2 -5.688 0.74103 0.27452 0 0 0
112 7 2 -4.71992 0.916166 0.390392 0 0 0
113 8 1 3.92569 -0.0403434 1.77581 0 -1 0
114 8 1 4.39818 0.876098 1.7242 0 -1 0
115 8 1 5.12387 0.822223 1.08915 0 -1 0
116 8 1 5.64699 1.54877 0.675954 0 -1 0
117 8 1 4.89266 1.2624 0.147508 0 -1 0
118 8 1 5.5754 1.53785 -0.425288 0 -1 0
119 8 1 -6.12635 2.08907 -0.841778 1 -1 0
120 8 1 5.63957 -1.40001 -0.680261 0 0 0
121 8 2 -5.93423 -0.935204 -0.65764 1 0 0
122 8 2 -5.57371 -0.887925 -1.54193 1 0 0
123 8 2 6.16847 -0.247817 -1.77463 0 0 0
124 8 2 5.69131 0.281556 1.82383 0 0 -1
125 8 2 5.23842 0.741681 -1.70517 0 0 0
126 8 2 5.37879 0.164986 -0.88509 0 0 0
127 8 2 4.91451 -0.52675 -0.471893 0 0 0
128 8 2 4.76495 -0.579915 0.547859 0 0 0
ITEM: TIMESTEP
8800
ITEM: NUMBER OF ATOMS
128
ITEM: BOX BOUNDS pp pp pp
-6.2010977310080699e+00 6.2010977310080699e+00
-2.1200334123104558e+00 2.1200334123104558e+00
-2.1200334123104558e+00 2.1200334123104558e+00
ITEM: ATOMS id mol type x y z ix iy iz
1 1 1 -5.44832 -1.75863 0.291262 0 1 0
2 1 1 -4.53264 -1.42121 0.51717 0 1 0
3 1 1 -3.68485 -1.93952 0.532323 0 1 0
4 1 1 -3.81143 1.47549 -0.0781034 0 0 0
5 1 1 -3.27037 1.02827 0.57278 0 0 0
6 1 1 -3.65172 0.262852 0.142536 0 0 0
7 1 1 -3.67541 -0.590764 0.542199 0 0 0
8 1 1 -3.3004 -0.86781 1.39069 0 0 0
9 1 2 -2.71496 -0.125616 1.5895 0 0 0
10 1 2 -2.52598 0.029848 0.659163 0 0 0
11 1 2 -2.04216 0.36911 -0.0972472 0 0 0
12 1 2 -1.69421 1.28171 -0.180656 0 0 0
13 1 2 -0.847433 1.20435 0.22205 0 0 0
14 1 2 -0.912005 0.259626 0.0641995 0 0 0
15 1 2 -0.173765 0.0859952 0.723749 0 0 0
16 1 2 0.527296 0.17592 0.102731 0 0 0
17 2 1 -1.19332 -0.706236 0.46228 0 0 -1
18 2 1 -2.09579 -0.884415 0.802118 0 0 -1
19 2 1 -1.6185 -0.745134 1.62658 0 0 -1
20 2 1 -1.89376 -1.32595 -1.81894 0 0 0
21 2 1 -2.02432 -0.478004 -1.22114 0 0 0
22 2 1 -1.12816 -0.531747 -1.59711 0 0 0
23 2 1 -0.229845 -0.14394 -1.4056 0 0 0
24 2 1 0.0334529 -0.981876 -1.97461 0 0 0
25 2 2 0.822157 -1.43468 -1.90972 0 0 0
26 2 2 1.26695 -2.11995 -1.42165 0 0 0
27 2 2 2.17143 -1.96629 -1.78583 0 0 0
28 2 2 2.61523 -1.1704 -1.86802 0 0 0
29 2 2 1.68034 -0.951651 -1.57821 0 0 0
30 2 2 2.26936 -0.184689 -1.87319 0 0 0
31 2 2 2.17238 -0.0593983 1.43855 0 0 -1
32 2 2 1.21269 -0.239518 1.35488 0 0 -1
33 3 1 -0.146793 -1.16756 -0.95976 0 1 0
34 3 1 0.84317 -1.02404 -0.976943 0 1 0
35 3 1 1.29217 -0.299023 -0.530025 0 1 0
36 3 1 2.14849 -0.709325 -0.621434 0 1 0
37 3 1 2.41352 -1.72631 -0.642878 0 1 0
38 3 1 3.16542 -1.05457 -0.855554 0 1 0
39 3 1 3.50354 -1.7364 -1.50078 0 1 0
40 3 1 3.60829 1.79484 -2.10836 0 0 0
41 3 2 4.27979 -1.66651 2.00769 0 1 -1
42 3 2 3.53924 -1.67532 1.41322 0 1 -1
43 3 2 2.78448 -1.53309 0.752981 0 1 -1
44 3 2 1.92184 -2.00017 0.889587 0 1 -1
45 3 2 2.68209 1.70838 1.12933 0 0 -1
46 3 2 2.31894 0.946969 0.717103 0 0 -1
47 3 2 3.13518 0.488478 0.700283 0 0 -1
48 3 2 3.239 0.0552112 -0.153313 0 0 -1
49 4 1 -5.10824 -0.0384426 0.7646 0 0 0
50 4 1 -5.41632 0.30036 -0.130007 0 0 0
51 4 1 -4.869 -0.453576 -0.342841 0 0 0
52 4 1 -4.25629 -1.10305 -0.809119 0 0 0
53 4 1 -4.78328 -1.89713 -0.985287 0 0 0
54 4 1 -4.44815 1.42868 -1.0895 0 -1 0
55 4 1 -3.84196 0.707983 -0.849974 0 -1 0
56 4 1 -3.3631 1.48369 -1.13798 0 -1 0
57 4 2 -2.64857 1.62749 -0.540962 0 -1 0
58 4 2 -1.91691 -2.06167 -0.799198 0 0 0
59 4 2 -1.28975 -1.39912 -0.596505 0 0 0
60 4 2 -1.28183 -1.82989 0.285225 0 0 0
61 4 2 -0.482896 -1.34528 0.332315 0 0 0
62 4 2 -0.265582 2.01976 0.599987 0 -1 0
63 4 2 0.640323 -1.92836 0.42969 0 0 0
64 4 2 1.14348 -1.19706 0.195115 0 0 0
65 5 1 0.337536 1.36765 -0.0656244 0 0 0
66 5 1 0.865094 1.01125 0.669556 0 0 0
67 5 1 1.39263 1.5497 0.166009 0 0 0
68 5 1 1.37132 0.85388 -0.549122 0 0 0
69 5 1 1.92097 0.489894 -1.25788 0 0 0
70 5 1 2.91265 0.550109 -1.14089 0 0 0
71 5 1 3.35842 -0.268662 -1.55252 0 0 0
72 5 1 4.14313 -0.609235 -1.94768 0 0 0
73 5 2 4.54951 -1.00331 -1.21976 0 0 0
74 5 2 4.1232 -1.66829 -0.602509 0 0 0
75 5 2 3.52406 2.00748 -0.192892 0 -1 0
76 5 2 2.97263 1.30908 -0.472197 0 -1 0
77 5 2 3.86295 0.906169 -0.429496 0 -1 0
78 5 2 3.89595 1.34191 -1.27613 0 -1 0
79 5 2 4.7054 1.73932 -1.61752 0 -1 0
80 5 2 5.19689 -1.78652 -1.22129 0 0 0
81 6 1 -2.88733 -0.957618 -0.99337 0 1 1
82 6 1 -3.18594 -1.49734 -1.74547 0 1 1
83 6 1 -2.69369 -1.98919 1.85818 0 1 0
84 6 1 -1.96195 1.66627 1.84359 0 0 0
85 6 1 -1.68229 1.33269 -1.51874 0 0 1
86 6 1 -0.973088 2.02328 -1.52807 0 0 1
87 6 1 -0.455723 1.57289 -0.832468 0 0 1
88 6 1 -0.803537 0.83569 -1.3803 0 0 1
89 6 2 -0.813001 0.328261 2.0027 0 0 0
90 6 2 0.0840135 0.669405 1.97593 0 0 0
91 6 2 0.670294 -0.00361474 -1.88796 0 0 1
92 6 2 0.545 0.754917 -1.3607 0 0 1
93 6 2 0.942549 1.27017 -2.0018 0 0 1
94 6 2 1.05628 2.00226 1.56354 0 0 0
95 6 2 0.172559 1.77201 1.59933 0 0 0
96 6 2 -0.757955 1.53353 1.77796 0 0 0
97 7 1 -5.39704 0.654572 -1.77381 0 -1 1
98 7 1 -5.61839 1.50951 -1.33624 0 -1 1
99 7 1 6.08457 1.8507 -1.94627 -1 -1 1
100 7 1 5.42761 -1.83437 1.88479 -1 0 0
101 7 1 -6.17933 -1.32093 1.64203 0 0 0
102 7 1 -5.42687 -1.84243 1.90781 0 0 0
103 7 1 -4.58451 -2.08974 -2.06728 0 0 1
104 7 1 -4.54592 -1.20341 -1.86305 0 0 1
105 7 2 -4.53798 -0.563351 1.62245 0 0 0
106 7 2 -3.73139 -0.206783 2.10192 0 0 0
107 7 2 -3.26959 0.581135 -1.88449 0 0 1
108 7 2 -4.16777 0.860343 2.0149 0 0 0
109 7 2 -4.89476 1.18926 1.46726 0 0 0
110 7 2 -5.72667 0.765757 1.22584 0 0 0
111 7 2 -6.15932 0.964441 0.409125 0 0 0
112 7 2 -5.19205 1.3158 0.443557 0 0 0
113 8 1 4.847 0.195236 -2.08126 0 -1 1
114 8 1 4.31845 0.729299 1.558 0 -1 0
115 8 1 5.21076 0.413149 1.19741 0 -1 0
116 8 1 5.25591 1.35846 0.857088 0 -1 0
117 8 1 5.05381 1.0768 -0.0694302 0 -1 0
118 8 1 5.75287 1.5295 -0.530114 0 -1 0
119 8 1 5.56457 -1.93865 -2.61404e-05 0 0 0
120 8 1 5.61057 -1.06145 -0.432957 0 0 0
121 8 2 -5.93309 -1.11836 -0.73308 1 0 0
122 8 2 -6.04774 -0.841651 -1.61629 1 0 0
123 8 2 5.97842 0.0228631 -1.89205 0 0 0
124 8 2 5.68482 0.88656 2.1119 0 0 -1
125 8 2 5.29356 0.899084 -1.29951 0 0 0
126 8 2 5.47947 0.0158352 -0.943853 0 0 0
127 8 2 4.62767 0.0654975 -0.517878 0 0 0
128 8 2 3.99161 -0.708536 -0.370703 0 0 0
ITEM: TIMESTEP
9000
ITEM: NUMBER OF ATOMS
128
ITEM: BOX BOUNDS pp pp pp
-6.2010977310080699e+00 6.2010977310080699e+00
-2.1200334123104558e+00 2.1200334123104558e+00
-2.1200334123104558e+00 2.1200334123104558e+00
ITEM: ATOMS id mol type x y z ix iy iz
1 1 1 -4.67039 -1.37482 0.72599 0 1 0
2 1 1 -4.16521 -0.662441 0.436702 0 1 0
3 1 1 -3.88699 -1.48198 0.0381889 0 1 0
4 1 1 -4.04164 1.87637 0.421495 0 0 0
5 1 1 -3.56043 1.11157 0.31494 0 0 0
6 1 1 -3.92977 0.340456 0.797214 0 0 0
7 1 1 -3.51903 0.0839882 0.00938977 0 0 0
8 1 1 -2.97645 -0.501932 0.544549 0 0 0
9 1 2 -2.7124 -0.374471 1.46152 0 0 0
10 1 2 -2.29924 0.46355 1.06507 0 0 0
11 1 2 -2.49655 0.543099 0.135942 0 0 0
12 1 2 -1.72923 0.941016 -0.257916 0 0 0
13 1 2 -0.92154 1.15636 -0.703906 0 0 0
14 1 2 -0.299286 0.561724 -0.335706 0 0 0
15 1 2 -0.380885 0.184578 0.53725 0 0 0
16 1 2 0.175341 -0.572356 0.274775 0 0 0
17 2 1 -2.00311 -0.820349 0.970866 0 0 -1
18 2 1 -1.23562 -0.766853 1.59234 0 0 -1
19 2 1 -1.87409 -1.38814 1.95432 0 0 -1
20 2 1 -2.40302 -1.49194 -1.43662 0 0 0
21 2 1 -2.00688 -0.612022 -1.31011 0 0 0
22 2 1 -1.05867 -0.508235 -1.10351 0 0 0
23 2 1 -0.137422 -0.492362 -1.3314 0 0 0
24 2 1 0.521367 -0.850979 -1.97594 0 0 0
25 2 2 0.168912 -1.63317 1.68203 0 0 -1
26 2 2 1.05071 -1.87023 1.88198 0 0 -1
27 2 2 1.83872 2.01026 -2.07116 0 -1 0
28 2 2 2.273 -1.36928 -2.10237 0 0 0
29 2 2 1.7248 -0.573761 -1.95801 0 0 0
30 2 2 2.12014 -0.352723 1.4101 0 0 -1
31 2 2 1.37025 -0.212626 0.744255 0 0 -1
32 2 2 1.08494 -0.0312303 1.59624 0 0 -1
33 3 1 -0.18589 -1.45894 -0.757485 0 1 0
34 3 1 0.686876 -1.17361 -0.908654 0 1 0
35 3 1 1.16704 -0.500942 -0.31411 0 1 0
36 3 1 2.13058 -0.63338 -0.586536 0 1 0
37 3 1 2.04246 -1.55066 -0.48027 0 1 0
38 3 1 2.99823 -1.56373 -0.790467 0 1 0
39 3 1 3.47275 -1.94807 -1.46064 0 1 0
40 3 1 3.78178 1.57793 -2.01733 0 0 0
41 3 2 3.80714 -2.11939 1.41368 0 1 -1
42 3 2 3.99324 -1.26031 0.965145 0 1 -1
43 3 2 3.17795 -1.11327 0.619347 0 1 -1
44 3 2 2.85805 -1.70173 1.28411 0 1 -1
45 3 2 2.73741 1.62886 0.991152 0 0 -1
46 3 2 2.27766 0.768895 1.05177 0 0 -1
47 3 2 3.03128 0.118907 1.11218 0 0 -1
48 3 2 2.63047 -0.263757 0.298602 0 0 -1
49 4 1 -5.36394 -0.56938 0.204827 0 0 0
50 4 1 -4.94768 0.203433 -0.233151 0 0 0
51 4 1 -4.82631 -0.442082 -0.958525 0 0 0
52 4 1 -5.16541 -1.29143 -0.631896 0 0 0
53 4 1 -4.662 -2.04068 -0.924392 0 0 0
54 4 1 -4.58224 1.22707 -1.03836 0 -1 0
55 4 1 -4.0157 0.484568 -0.803998 0 -1 0
56 4 1 -3.30631 1.05502 -1.01379 0 -1 0
57 4 2 -3.01669 1.89294 -0.678452 0 -1 0
58 4 2 -2.69633 -1.66 -0.091703 0 0 0
59 4 2 -1.72544 -1.9221 -0.206379 0 0 0
60 4 2 -0.847493 -1.76699 0.0955327 0 0 0
61 4 2 -0.443553 -1.38917 0.898924 0 0 0
62 4 2 0.445203 -1.61577 0.608861 0 0 0
63 4 2 1.07362 -1.7943 -0.0513959 0 0 0
64 4 2 1.81472 -1.32117 0.573593 0 0 0
65 5 1 0.435846 1.00096 0.223504 0 0 0
66 5 1 1.10731 1.03821 0.893425 0 0 0
67 5 1 1.7382 1.4117 0.243345 0 0 0
68 5 1 2.52344 0.935851 -0.111704 0 0 0
69 5 1 2.10857 0.611222 -0.948502 0 0 0
70 5 1 2.69048 0.29504 -1.6748 0 0 0
71 5 1 3.20402 -0.572353 -1.57546 0 0 0
72 5 1 3.82688 -0.941536 2.0282 0 0 -1
73 5 2 4.2292 -0.905403 -1.29723 0 0 0
74 5 2 4.13199 -1.27627 -0.443794 0 0 0
75 5 2 4.18743 2.00491 -0.185699 0 -1 0
76 5 2 3.56902 1.13097 -0.0656646 0 -1 0
77 5 2 3.42204 0.460224 -0.710125 0 -1 0
78 5 2 4.33077 0.780043 -0.816369 0 -1 0
79 5 2 4.76745 1.60358 -0.902868 0 -1 0
80 5 2 4.87185 -1.81969 -1.40687 0 0 0
81 6 1 -3.24362 -1.0909 -0.9681 0 1 1
82 6 1 -3.35642 -1.85431 -1.56542 0 1 1
83 6 1 -3.00628 -1.97013 1.79691 0 1 0
84 6 1 -2.17276 1.81348 1.95057 0 0 0
85 6 1 -1.50308 1.59352 -1.62114 0 0 1
86 6 1 -0.907127 -1.93551 -1.65382 0 1 1
87 6 1 -0.287544 1.59598 -1.64704 0 0 1
88 6 1 -0.575263 0.667045 -1.68771 0 0 1
89 6 2 -0.339083 0.119917 1.72769 0 0 0
90 6 2 0.385901 0.444234 -1.95345 0 0 1
91 6 2 0.911473 0.351805 -1.20432 0 0 1
92 6 2 0.639509 1.26852 -1.00293 0 0 1
93 6 2 1.10917 1.35207 -1.83539 0 0 1
94 6 2 0.454296 1.38879 1.66202 0 0 0
95 6 2 -0.496446 1.31909 1.59589 0 0 0
96 6 2 -0.887886 -2.0863 1.4978 0 1 0
97 7 1 -5.72946 1.07448 -1.88347 0 -1 1
98 7 1 -5.55744 1.92553 -1.38862 0 -1 1
99 7 1 6.0149 -2.0411 -1.82857 -1 0 1
100 7 1 5.5353 -1.56673 1.76649 -1 0 0
101 7 1 6.16715 -1.32515 1.12934 -1 0 0
102 7 1 -5.41067 -1.83881 1.35278 0 0 0
103 7 1 -4.93459 -1.43338 2.03642 0 0 0
104 7 1 -4.1146 -1.03066 -1.8508 0 0 1
105 7 2 -4.31779 -0.76847 1.44233 0 0 0
106 7 2 -3.74969 -0.0594035 1.72686 0 0 0
107 7 2 -3.15766 0.66038 1.9579 0 0 0
108 7 2 -4.07446 0.966463 1.87714 0 0 0
109 7 2 -4.95874 1.01132 1.60916 0 0 0
110 7 2 -5.22617 0.391183 0.962282 0 0 0
111 7 2 -5.91715 1.03062 0.928649 0 0 0
112 7 2 -5.64491 1.62299 0.281048 0 0 0
113 8 1 4.57439 0.171308 -1.78863 0 -1 1
114 8 1 4.50921 -0.00493415 1.46784 0 -1 0
115 8 1 5.25341 0.479859 1.02196 0 -1 0
116 8 1 4.94683 0.894664 0.235029 0 -1 0
117 8 1 5.66244 1.49453 -0.0279705 0 -1 0
118 8 1 5.63518 -1.95907 0.508154 0 0 0
119 8 1 5.08361 -1.24407 0.434139 0 0 0
120 8 1 5.71577 -0.816074 -0.245687 0 0 0
121 8 2 5.91152 -1.23715 -1.0524 0 0 0
122 8 2 6.0286 -0.815512 -1.88377 0 0 0
123 8 2 5.89682 0.0889567 -2.09128 0 0 0
124 8 2 5.61722 0.857676 -1.59424 0 0 0
125 8 2 -6.14271 0.432608 -1.04437 1 0 0
126 8 2 5.49975 -0.0654913 -1.11156 0 0 0
127 8 2 4.8683 -0.0061217 -0.431272 0 0 0
128 8 2 4.58885 -0.253412 0.485312 0 0 0
ITEM: TIMESTEP
9200
ITEM: NUMBER OF ATOMS
128
ITEM: BOX BOUNDS pp pp pp
-6.2010977310080699e+00 6.2010977310080699e+00
-2.1200334123104558e+00 2.1200334123104558e+00
-2.1200334123104558e+00 2.1200334123104558e+00
ITEM: ATOMS id mol type x y z ix iy iz
1 1 1 -5.03 -1.06554 0.981024 0 1 0
2 1 1 -4.09432 -0.840537 0.505645 0 1 0
3 1 1 -3.52846 -1.50196 0.0915655 0 1 0
4 1 1 -3.92719 -1.8997 0.889496 0 1 0
5 1 1 -4.05465 1.79218 0.113301 0 0 0
6 1 1 -3.51579 1.08885 0.410063 0 0 0
7 1 1 -3.55485 0.173451 0.109553 0 0 0
8 1 1 -2.75156 -0.223892 -0.279988 0 0 0
9 1 2 -2.40774 -0.0492344 0.654376 0 0 0
10 1 2 -1.81666 0.284108 1.33113 0 0 0
11 1 2 -2.27622 1.03513 0.832161 0 0 0
12 1 2 -2.09645 0.690195 -0.0527058 0 0 0
13 1 2 -1.52641 1.0511 -0.74353 0 0 0
14 1 2 -0.843495 0.390446 -0.71691 0 0 0
15 1 2 -0.900119 0.963545 0.0837544 0 0 0
16 1 2 -0.393915 0.375372 0.619407 0 0 0
17 2 1 -0.857094 -0.967976 0.873513 0 0 -1
18 2 1 -1.32317 -0.881815 1.78459 0 0 -1
19 2 1 -1.95293 -1.45785 -1.94753 0 0 0
20 2 1 -2.20592 -1.14421 -1.10609 0 0 0
21 2 1 -1.65306 -0.374705 -1.36527 0 0 0
22 2 1 -0.716804 -0.644351 -1.07471 0 0 0
23 2 1 -0.437884 -1.31011 -1.67896 0 0 0
24 2 1 0.104247 -0.876764 1.87082 0 0 -1
25 2 2 0.0112612 -1.82271 1.76728 0 0 -1
26 2 2 0.842427 -2.06794 1.37364 0 0 -1
27 2 2 1.55363 -1.69028 1.8493 0 0 -1
28 2 2 2.22386 -1.25827 -1.92671 0 0 0
29 2 2 2.07333 -0.614506 1.67877 0 0 -1
30 2 2 1.37646 -0.696034 1.04921 0 0 -1
31 2 2 1.18323 0.0280914 0.514277 0 0 -1
32 2 2 0.862366 0.144189 1.45726 0 0 -1
33 3 1 0.253673 -1.93384 -0.785203 0 1 0
34 3 1 1.14694 -1.6392 -1.05446 0 1 0
35 3 1 1.25 -1.12272 -0.272667 0 1 0
36 3 1 1.47814 -0.641417 -1.08242 0 1 0
37 3 1 2.31523 -1.12571 -0.815499 0 1 0
38 3 1 2.97297 -1.87661 -1.1474 0 1 0
39 3 1 3.1675 1.87613 -1.90046 0 0 0
40 3 1 4.0212 1.42974 -1.99936 0 0 0
41 3 2 4.29845 1.6782 1.37606 0 0 -1
42 3 2 4.37977 -1.68304 1.63439 0 1 -1
43 3 2 3.61656 -1.28428 1.14928 0 1 -1
44 3 2 2.93435 -1.83822 0.813938 0 1 -1
45 3 2 3.24381 1.68216 1.36333 0 0 -1
46 3 2 3.25114 0.725147 1.49906 0 0 -1
47 3 2 2.74243 0.0317929 1.05087 0 0 -1
48 3 2 2.53642 -0.184492 0.12587 0 0 -1
49 4 1 -5.50206 -0.256343 0.0653141 0 0 0
50 4 1 -4.95467 -0.139713 -0.724814 0 0 0
51 4 1 -5.39627 -1.04446 -0.922507 0 0 0
52 4 1 -5.46953 -1.9942 -1.02186 0 0 0
53 4 1 -4.56465 -1.66708 -0.945485 0 0 0
54 4 1 -4.55329 1.62789 -0.864507 0 -1 0
55 4 1 -3.86678 1.02735 -0.616526 0 -1 0
56 4 1 -3.12147 0.991377 -1.21908 0 -1 0
57 4 2 -2.6638 1.46838 -0.490171 0 -1 0
58 4 2 -2.65322 -1.84737 -0.406021 0 0 0
59 4 2 -2.08599 -1.94316 0.394009 0 0 0
60 4 2 -1.59792 -1.29619 -0.144105 0 0 0
61 4 2 -0.656135 -1.31168 -0.176109 0 0 0
62 4 2 0.192482 -1.34388 0.191733 0 0 0
63 4 2 0.90581 -2.08359 0.395518 0 0 0
64 4 2 1.71541 -1.63659 0.49982 0 0 0
65 5 1 0.392391 1.15438 0.380353 0 0 0
66 5 1 1.2157 0.994722 0.807742 0 0 0
67 5 1 1.98152 0.862803 0.239514 0 0 0
68 5 1 2.89032 1.07954 0.369322 0 0 0
69 5 1 2.83074 0.805166 -0.594683 0 0 0
70 5 1 2.91222 0.604584 -1.53732 0 0 0
71 5 1 3.33417 -0.210523 -1.83293 0 0 0
72 5 1 3.45696 -1.17145 -2.07809 0 0 0
73 5 2 4.0299 -0.991571 -1.30816 0 0 0
74 5 2 3.613 -1.22459 -0.458333 0 0 0
75 5 2 4.0632 -1.91442 0.247458 0 0 0
76 5 2 3.96433 1.38771 0.139796 0 -1 0
77 5 2 3.78181 1.27924 -0.779909 0 -1 0
78 5 2 4.45678 0.531774 -0.749729 0 -1 0
79 5 2 4.94185 1.28835 -0.941107 0 -1 0
80 5 2 4.7515 -1.99023 -0.844866 0 0 0
81 6 1 -3.47242 -1.12446 -1.22531 0 1 1
82 6 1 -3.54005 -1.96907 -1.60962 0 1 1
83 6 1 -3.05566 -2.10409 1.78199 0 1 0
84 6 1 -2.29452 1.58301 2.03019 0 0 0
85 6 1 -1.79667 1.80972 -1.42548 0 0 1
86 6 1 -0.928551 2.06848 -1.05953 0 0 1
87 6 1 -0.445361 1.2702 -1.23615 0 0 1
88 6 1 -0.940588 0.909713 -2.01435 0 0 1
89 6 2 -0.360013 0.301133 -1.59178 0 0 1
90 6 2 0.370479 0.0173385 -1.02324 0 0 1
91 6 2 1.16367 0.516855 -0.791178 0 0 1
92 6 2 0.949273 1.5064 -0.957417 0 0 1
93 6 2 0.722576 1.30987 -1.86084 0 0 1
94 6 2 0.0238247 0.93194 1.74517 0 0 0
95 6 2 -0.472547 1.2908 1.06665 0 0 0
96 6 2 -1.26104 1.48984 1.43925 0 0 0
97 7 1 -5.55746 1.68855 -1.85746 0 -1 1
98 7 1 5.89228 1.65247 -1.67969 -1 -1 1
99 7 1 5.69477 -1.86378 1.91373 -1 0 0
100 7 1 5.36492 -1.0184 1.51705 -1 0 0
101 7 1 -6.13749 -0.975253 1.06908 0 0 0
102 7 1 -5.70357 -1.70129 1.51792 0 0 0
103 7 1 -5.19664 -1.14279 2.11302 0 0 0
104 7 1 -4.22601 -1.12595 1.96391 0 0 0
105 7 2 -4.06325 -0.329871 1.46397 0 0 0
106 7 2 -3.7392 0.212049 -2.05214 0 0 1
107 7 2 -3.37834 1.08525 1.94025 0 0 0
108 7 2 -4.15174 1.63599 1.79928 0 0 0
109 7 2 -4.4059 0.685118 1.42559 0 0 0
110 7 2 -5.108 0.293115 0.934724 0 0 0
111 7 2 -5.4668 1.29245 0.706992 0 0 0
112 7 2 -5.42121 -2.10374 0.205854 0 1 0
113 8 1 4.2383 0.267749 -1.89384 0 -1 1
114 8 1 5.03635 0.312373 1.85843 0 -1 0
115 8 1 4.67565 0.6749 0.938464 0 -1 0
116 8 1 5.70679 0.479271 0.719029 0 -1 0
117 8 1 5.79966 1.17556 0.121617 0 -1 0
118 8 1 5.29241 1.91215 0.576004 0 -1 0
119 8 1 6.06273 -1.81004 0.356397 0 0 0
120 8 1 6.0973 -1.03366 -0.249806 0 0 0
121 8 2 5.79593 -1.35924 -1.05832 0 0 0
122 8 2 6.00487 -0.841947 -1.81744 0 0 0
123 8 2 6.02697 0.0757973 -2.02692 0 0 0
124 8 2 -6.06855 0.682622 -1.29058 1 0 0
125 8 2 -6.06435 -0.138262 -0.756188 1 0 0
126 8 2 5.43122 -0.25503 -0.844387 0 0 0
127 8 2 4.8232 -0.767891 -0.304085 0 0 0
128 8 2 4.16591 -0.424428 0.203801 0 0 0
ITEM: TIMESTEP
9400
ITEM: NUMBER OF ATOMS
128
ITEM: BOX BOUNDS pp pp pp
-6.2010977310080699e+00 6.2010977310080699e+00
-2.1200334123104558e+00 2.1200334123104558e+00
-2.1200334123104558e+00 2.1200334123104558e+00
ITEM: ATOMS id mol type x y z ix iy iz
1 1 1 -5.36136 -0.423433 0.860202 0 1 0
2 1 1 -4.46368 -0.843697 0.682102 0 1 0
3 1 1 -3.7316 -1.05012 0.106213 0 1 0
4 1 1 -3.08142 -1.54658 0.765971 0 1 0
5 1 1 -3.68644 2.06941 0.388298 0 0 0
6 1 1 -3.30714 1.28838 0.709129 0 0 0
7 1 1 -3.37095 0.328869 0.77632 0 0 0
8 1 1 -3.10779 -0.136992 0.0287966 0 0 0
9 1 2 -2.58086 -0.602014 0.764597 0 0 0
10 1 2 -2.30387 0.120811 1.3056 0 0 0
11 1 2 -2.09151 1.07296 1.23625 0 0 0
12 1 2 -1.74934 1.20833 0.373458 0 0 0
13 1 2 -2.15561 0.553988 -0.177388 0 0 0
14 1 2 -1.5726 -0.0706979 0.296986 0 0 0
15 1 2 -1.0581 0.61719 -0.131478 0 0 0
16 1 2 -0.53017 0.169728 0.560084 0 0 0
17 2 1 -0.958616 -0.746016 0.928554 0 0 -1
18 2 1 -1.72045 -1.42735 1.06353 0 0 -1
19 2 1 -1.82424 -0.992883 1.93163 0 0 -1
20 2 1 -2.15355 -0.520774 -1.49273 0 0 0
21 2 1 -1.4522 -0.0958831 -0.970641 0 0 0
22 2 1 -0.723301 -0.702133 -0.991523 0 0 0
23 2 1 -0.558517 -1.51202 -1.52653 0 0 0
24 2 1 0.0208048 -0.847009 -1.95003 0 0 0
25 2 2 0.112678 -1.35112 1.51418 0 0 -1
26 2 2 0.734249 2.10663 1.43502 0 -1 -1
27 2 2 1.51147 -1.7982 1.86501 0 0 -1
28 2 2 2.01722 -1.07604 1.56876 0 0 -1
29 2 2 1.81581 -0.968767 0.620967 0 0 -1
30 2 2 1.02576 -0.974349 1.0523 0 0 -1
31 2 2 1.05612 -0.387142 0.257421 0 0 -1
32 2 2 0.899945 0.204278 1.04649 0 0 -1
33 3 1 0.559159 1.79781 -1.82313 0 0 0
34 3 1 1.09226 -1.79996 -1.3389 0 1 0
35 3 1 1.10288 -0.830146 -1.54203 0 1 0
36 3 1 2.07215 -0.676344 -1.31894 0 1 0
37 3 1 2.20807 -1.5566 -1.15437 0 1 0
38 3 1 2.34441 1.86413 -1.58026 0 0 0
39 3 1 3.21305 2.13039 -1.22406 0 0 0
40 3 1 3.67463 1.4824 -1.94379 0 0 0
41 3 2 4.60606 1.91052 -1.92472 0 0 0
42 3 2 4.21354 -1.48148 -2.1107 0 1 0
43 3 2 3.54531 -1.89341 1.58938 0 1 -1
44 3 2 2.938 2.02358 0.982704 0 0 -1
45 3 2 2.56936 1.31481 1.53937 0 0 -1
46 3 2 3.27112 1.01739 1.00996 0 0 -1
47 3 2 2.7247 0.302954 1.27887 0 0 -1
48 3 2 2.74713 -0.113465 0.409486 0 0 -1
49 4 1 -4.91061 -0.0507025 -0.15481 0 0 0
50 4 1 -4.97048 -0.224352 -1.09245 0 0 0
51 4 1 -5.52692 -1.03513 -1.04235 0 0 0
52 4 1 -5.70415 -1.87863 -0.667071 0 0 0
53 4 1 -4.73213 -1.95482 -0.791557 0 0 0
54 4 1 -4.75319 1.42079 -1.25879 0 -1 0
55 4 1 -3.83997 1.56502 -1.04096 0 -1 0
56 4 1 -3.26954 1.03785 -0.460464 0 -1 0
57 4 2 -2.65148 1.62244 -0.950151 0 -1 0
58 4 2 -3.11646 -1.97339 -0.418321 0 0 0
59 4 2 -2.14391 -1.82663 -0.387773 0 0 0
60 4 2 -1.47336 -1.17182 -0.233319 0 0 0
61 4 2 -0.485306 -1.33216 0.0513723 0 0 0
62 4 2 0.276075 -1.62933 -0.374054 0 0 0
63 4 2 1.17141 -1.51204 -0.0563295 0 0 0
64 4 2 1.65015 -2.11283 0.575984 0 0 0
65 5 1 0.685875 1.00909 -0.615385 0 0 0
66 5 1 0.973151 1.44015 0.207678 0 0 0
67 5 1 1.74481 0.875336 0.449908 0 0 0
68 5 1 2.40426 0.987098 -0.227433 0 0 0
69 5 1 2.54035 0.384211 -1.00578 0 0 0
70 5 1 3.44215 0.308558 -1.19094 0 0 0
71 5 1 2.81449 0.0670096 -1.92694 0 0 0
72 5 1 3.33757 -0.626528 -1.52118 0 0 0
73 5 2 4.06608 -1.01181 -1.03536 0 0 0
74 5 2 3.40693 -1.40989 -0.417779 0 0 0
75 5 2 4.25801 -1.87081 -0.0220072 0 0 0
76 5 2 4.39397 1.86665 0.745037 0 -1 0
77 5 2 4.34905 1.14851 0.167189 0 -1 0
78 5 2 4.32983 0.923796 -0.772767 0 -1 0
79 5 2 5.17687 1.34095 -1.03987 0 -1 0
80 5 2 5.14203 1.82664 -0.255133 0 -1 0
81 6 1 -3.54031 -0.907489 -1.48482 0 1 1
82 6 1 -3.64441 -1.84325 -1.77935 0 1 1
83 6 1 -2.92657 -1.80254 1.81993 0 1 0
84 6 1 -2.16217 1.90983 2.07955 0 0 0
85 6 1 -1.76462 2.05372 -1.31084 0 0 1
86 6 1 -1.45256 1.65154 -0.494098 0 0 1
87 6 1 -0.734559 1.64231 -1.10493 0 0 1
88 6 1 -0.871449 0.875081 -1.61625 0 0 1
89 6 2 -0.100229 0.563454 -1.14866 0 0 1
90 6 2 0.278274 -0.0424825 -0.447443 0 0 1
91 6 2 1.18436 0.0397896 -0.787084 0 0 1
92 6 2 1.56188 0.722026 -1.31948 0 0 1
93 6 2 0.91295 0.479223 -1.93063 0 0 1
94 6 2 0.142519 0.203353 1.74658 0 0 0
95 6 2 0.124968 1.09683 1.45731 0 0 0
96 6 2 -0.51362 1.51807 0.904532 0 0 0
97 7 1 -6.076 1.57008 1.7526 0 -1 0
98 7 1 5.72269 1.99562 -1.88827 -1 -1 1
99 7 1 5.54553 -1.29348 -2.03676 -1 0 1
100 7 1 5.18357 -0.647777 1.52544 -1 0 0
101 7 1 5.91476 -0.964365 0.987942 -1 0 0
102 7 1 -5.87591 -1.3318 1.64622 0 0 0
103 7 1 -5.10796 -1.34972 -2.05957 0 0 1
104 7 1 -4.25773 -0.952344 2.02335 0 0 0
105 7 2 -3.90168 -0.122891 1.69689 0 0 0
106 7 2 -3.14386 0.145798 -1.95576 0 0 1
107 7 2 -3.3351 1.02136 2.08672 0 0 0
108 7 2 -4.1525 1.63062 1.79203 0 0 0
109 7 2 -4.48671 0.755637 1.42602 0 0 0
110 7 2 -5.1197 0.715191 0.751463 0 0 0
111 7 2 -4.76291 1.49177 0.235697 0 0 0
112 7 2 -4.78217 -1.83255 0.342113 0 1 0
113 8 1 4.27837 0.640778 -2.00006 0 -1 1
114 8 1 5.06726 1.05598 1.6309 0 -1 0
115 8 1 5.27057 0.311482 1.10425 0 -1 0
116 8 1 6.12673 0.544212 1.36928 0 -1 0
117 8 1 6.05396 0.202077 0.475623 0 -1 0
118 8 1 5.70618 1.09714 0.237919 0 -1 0
119 8 1 6.16761 1.91537 0.144528 0 -1 0
120 8 1 5.71609 -1.5556 -0.0250217 0 0 0
121 8 2 5.80152 -1.36161 -0.93869 0 0 0
122 8 2 6.00695 -0.566471 -1.44881 0 0 0
123 8 2 -5.89555 -0.112328 2.12189 1 0 -1
124 8 2 -5.91868 0.399338 -1.25485 1 0 0
125 8 2 5.52721 0.301582 -1.09646 0 0 0
126 8 2 4.93508 -0.32268 -0.826198 0 0 0
127 8 2 4.67404 -0.754209 0.0474527 0 0 0
128 8 2 4.31017 0.0911936 0.0831062 0 0 0
ITEM: TIMESTEP
9600
ITEM: NUMBER OF ATOMS
128
ITEM: BOX BOUNDS pp pp pp
-6.2010977310080699e+00 6.2010977310080699e+00
-2.1200334123104558e+00 2.1200334123104558e+00
-2.1200334123104558e+00 2.1200334123104558e+00
ITEM: ATOMS id mol type x y z ix iy iz
1 1 1 -5.20166 -0.235819 0.827544 0 1 0
2 1 1 -4.28503 -0.364433 1.16564 0 1 0
3 1 1 -3.61184 -0.633617 0.57354 0 1 0
4 1 1 -3.4551 -1.49963 0.0268233 0 1 0
5 1 1 -3.1734 -1.97933 0.754192 0 1 0
6 1 1 -2.70864 1.4538 0.494074 0 0 0
7 1 1 -3.49928 0.85665 0.773701 0 0 0
8 1 1 -2.75644 0.213678 0.540025 0 0 0
9 1 2 -2.64305 -0.424365 1.26878 0 0 0
10 1 2 -2.21351 0.391383 1.53405 0 0 0
11 1 2 -1.68831 0.944451 2.11536 0 0 0
12 1 2 -1.20906 1.14521 1.31437 0 0 0
13 1 2 -1.60098 0.826782 0.450172 0 0 0
14 1 2 -1.80108 0.0638163 -0.0453495 0 0 0
15 1 2 -0.81539 -0.0277553 -0.0544541 0 0 0
16 1 2 -0.19474 -0.792922 -0.0458698 0 0 0
17 2 1 -1.28592 -1.24646 0.566436 0 0 -1
18 2 1 -1.72699 -1.11663 1.39729 0 0 -1
19 2 1 -2.06788 -0.717699 -2.04859 0 0 0
20 2 1 -2.11574 -0.0531146 -1.35094 0 0 0
21 2 1 -1.53633 -0.842539 -1.20595 0 0 0
22 2 1 -0.882332 -0.478819 -1.76428 0 0 0
23 2 1 -0.586091 -1.38712 -1.54134 0 0 0
24 2 1 0.0902961 -0.807477 -1.93603 0 0 0
25 2 2 -0.0216929 -1.24911 1.40261 0 0 -1
26 2 2 0.920699 -1.67132 1.44814 0 0 -1
27 2 2 1.87999 -1.811 1.24444 0 0 -1
28 2 2 1.99807 -1.00278 1.70659 0 0 -1
29 2 2 2.39871 -1.09956 0.805252 0 0 -1
30 2 2 1.52467 -0.64378 0.732702 0 0 -1
31 2 2 1.06988 -0.320862 -0.0202568 0 0 -1
32 2 2 0.963617 0.387315 0.627396 0 0 -1
33 3 1 1.01324 1.42908 -2.10206 0 0 0
34 3 1 0.727267 -2.01116 -1.59843 0 1 0
35 3 1 1.09479 -1.16255 -1.83547 0 1 0
36 3 1 1.84296 -1.10855 -1.28098 0 1 0
37 3 1 1.74674 -2.05899 -1.58218 0 1 0
38 3 1 2.54166 1.61997 -1.50259 0 0 0
39 3 1 3.16218 -2.05567 -1.10176 0 1 0
40 3 1 3.87037 1.54776 -1.49426 0 0 0
41 3 2 4.07022 -1.95606 -2.10453 0 1 0
42 3 2 3.77548 -1.26662 1.58711 0 1 -1
43 3 2 2.85081 -1.52414 1.94158 0 1 -1
44 3 2 3.18246 1.86806 1.50591 0 0 -1
45 3 2 2.47351 1.25281 1.49588 0 0 -1
46 3 2 2.38162 0.768479 0.682191 0 0 -1
47 3 2 2.69745 0.0064887 1.16714 0 0 -1
48 3 2 2.93406 -0.301065 0.247974 0 0 -1
49 4 1 -5.05936 -0.158934 -0.238685 0 0 0
50 4 1 -4.32207 -0.514745 -0.749788 0 0 0
51 4 1 -5.11153 -1.07816 -0.826361 0 0 0
52 4 1 -5.67437 -1.85144 -0.742604 0 0 0
53 4 1 -4.83361 2.01825 -0.832976 0 -1 0
54 4 1 -5.27413 1.13318 -1.02806 0 -1 0
55 4 1 -4.35075 1.16484 -0.88736 0 -1 0
56 4 1 -3.45221 1.36307 -0.547217 0 -1 0
57 4 2 -3.1449 1.94446 -1.22189 0 -1 0
58 4 2 -2.30918 -1.86934 -1.18009 0 0 0
59 4 2 -2.0977 -1.68798 -0.29075 0 0 0
60 4 2 -1.44947 1.94219 -0.0223237 0 -1 0
61 4 2 -0.491593 2.03303 0.277993 0 -1 0
62 4 2 0.253461 -1.78979 -0.238962 0 0 0
63 4 2 0.913967 -1.39309 -0.774447 0 0 0
64 4 2 1.31616 -1.88113 -0.0384734 0 0 0
65 5 1 1.02405 1.40189 -0.989996 0 0 0
66 5 1 0.714579 0.723829 -0.320697 0 0 0
67 5 1 1.59273 1.10816 -0.133062 0 0 0
68 5 1 2.00473 0.739029 -0.948029 0 0 0
69 5 1 2.70274 0.542066 -0.308743 0 0 0
70 5 1 2.96977 0.506202 -1.22167 0 0 0
71 5 1 3.74159 -0.0131763 -1.43795 0 0 0
72 5 1 2.99138 -0.676194 -1.2533 0 0 0
73 5 2 3.53741 -1.11661 -0.623362 0 0 0
74 5 2 3.75943 -1.2195 0.34171 0 0 0
75 5 2 4.12403 -1.93214 -0.220211 0 0 0
76 5 2 4.72784 -1.83576 0.540896 0 0 0
77 5 2 4.30934 1.56203 0.44463 0 -1 0
78 5 2 4.51694 1.27534 -0.450928 0 -1 0
79 5 2 4.96545 1.39011 -1.25311 0 -1 0
80 5 2 5.55267 1.84682 -0.640106 0 -1 0
81 6 1 -3.48269 -1.09061 -0.985511 0 1 1
82 6 1 -3.62737 -1.45638 -1.87587 0 1 1
83 6 1 -2.89047 -1.59192 1.7237 0 1 0
84 6 1 -2.1303 -2.04487 2.00663 0 1 0
85 6 1 -1.20669 2.00822 -2.09182 0 0 1
86 6 1 -1.58258 1.58198 -1.29112 0 0 1
87 6 1 -0.671452 1.96647 -1.15314 0 0 1
88 6 1 -0.0502292 1.5975 -1.80104 0 0 1
89 6 2 -0.47943 0.911337 -1.33469 0 0 1
90 6 2 0.0467959 0.185788 -1.04666 0 0 1
91 6 2 0.914618 -0.246723 -1.41137 0 0 1
92 6 2 1.5226 0.16525 -2.02741 0 0 1
93 6 2 0.75351 -0.0619534 1.67169 0 0 0
94 6 2 0.394407 0.534951 -1.92377 0 0 1
95 6 2 0.204126 0.919974 1.40295 0 0 0
96 6 2 0.736696 1.36347 0.731829 0 0 0
97 7 1 6.22039 1.37907 1.70304 -1 -1 0
98 7 1 6.13749 2.11547 -1.91368 -1 -1 1
99 7 1 5.6269 -1.32049 -2.04974 -1 0 1
100 7 1 5.06073 -0.650801 1.66046 -1 0 0
101 7 1 5.69722 -0.984649 1.11777 -1 0 0
102 7 1 -5.86354 -1.10957 1.48099 0 0 0
103 7 1 -5.19837 -1.71137 1.95241 0 0 0
104 7 1 -4.73397 -0.916188 2.04971 0 0 0
105 7 2 -3.95947 -0.371316 -1.79771 0 0 1
106 7 2 -3.42806 0.303738 -1.36122 0 0 1
107 7 2 -3.98186 0.846294 -1.83005 0 0 1
108 7 2 -4.09827 1.68591 1.84891 0 0 0
109 7 2 -4.96533 1.54529 1.51744 0 0 0
110 7 2 -5.09048 0.977907 0.726655 0 0 0
111 7 2 -4.4653 1.51276 0.306683 0 0 0
112 7 2 -5.27912 1.97429 0.513971 0 0 0
113 8 1 4.52221 0.612383 -2.04962 0 -1 1
114 8 1 4.6417 1.45204 1.5363 0 -1 0
115 8 1 5.33437 0.817122 1.38847 0 -1 0
116 8 1 5.94793 0.0294388 1.37727 0 -1 0
117 8 1 5.74423 0.265887 0.441234 0 -1 0
118 8 1 -6.14269 0.902013 0.0307766 1 -1 0
119 8 1 5.48279 1.27123 0.366561 0 -1 0
120 8 1 5.93722 2.11413 0.501083 0 -1 0
121 8 2 5.84548 -1.27287 0.133465 0 0 0
122 8 2 6.14418 -1.00051 -0.715536 0 0 0
123 8 2 -6.21506 -0.0847199 -1.02922 1 0 0
124 8 2 6.17163 0.588314 -1.74755 0 0 0
125 8 2 5.40914 0.490549 -1.11073 0 0 0
126 8 2 4.92282 -0.245898 -0.887082 0 0 0
127 8 2 4.89188 -0.591711 0.0469377 0 0 0
128 8 2 4.16063 0.0325078 0.271643 0 0 0
ITEM: TIMESTEP
9800
ITEM: NUMBER OF ATOMS
128
ITEM: BOX BOUNDS pp pp pp
-6.2010977310080699e+00 6.2010977310080699e+00
-2.1200334123104558e+00 2.1200334123104558e+00
-2.1200334123104558e+00 2.1200334123104558e+00
ITEM: ATOMS id mol type x y z ix iy iz
1 1 1 -5.00947 -0.0643444 1.21847 0 1 0
2 1 1 -4.01472 -0.328697 1.00908 0 1 0
3 1 1 -3.26622 -0.837489 0.672418 0 1 0
4 1 1 -3.45657 -1.73436 0.943991 0 1 0
5 1 1 -2.90625 -1.70724 0.154465 0 1 0
6 1 1 -2.33449 1.8856 0.536845 0 0 0
7 1 1 -3.09566 1.56628 0.941786 0 0 0
8 1 1 -3.0128 0.723932 0.550041 0 0 0
9 1 2 -3.46712 0.679762 1.46024 0 0 0
10 1 2 -2.58326 0.283241 1.76297 0 0 0
11 1 2 -1.58209 0.430353 1.86337 0 0 0
12 1 2 -0.695193 0.56778 1.63031 0 0 0
13 1 2 -0.816543 0.654565 0.652059 0 0 0
14 1 2 -0.983069 0.433814 -0.258639 0 0 0
15 1 2 -0.458704 -0.304982 0.102502 0 0 0
16 1 2 -0.877298 -1.08984 -0.259984 0 0 0
17 2 1 -1.71505 -1.56197 1.20035 0 0 -1
18 2 1 -1.98987 -0.61489 1.30935 0 0 -1
19 2 1 -2.29309 -0.731797 -2.05136 0 0 0
20 2 1 -2.65123 -0.447788 -1.183 0 0 0
21 2 1 -1.71815 -0.310791 -1.04496 0 0 0
22 2 1 -1.15928 -1.00942 -1.39579 0 0 0
23 2 1 -0.530299 -1.33871 -1.96503 0 0 0
24 2 1 0.0924334 -0.852307 1.81838 0 0 -1
25 2 2 -0.297691 -1.32247 1.10624 0 0 -1
26 2 2 0.450538 -1.11373 0.54952 0 0 -1
27 2 2 1.36613 -1.36867 0.677957 0 0 -1
28 2 2 1.86561 -1.19424 1.6172 0 0 -1
29 2 2 2.64994 -1.19471 1.07945 0 0 -1
30 2 2 2.07609 -0.605428 0.560495 0 0 -1
31 2 2 1.57209 -0.391319 -0.222142 0 0 -1
32 2 2 0.691371 -0.21178 -0.016028 0 0 -1
33 3 1 1.55034 1.45185 1.77045 0 0 -1
34 3 1 0.996857 -1.93708 1.83335 0 1 -1
35 3 1 1.14965 -1.2663 -1.76097 0 1 0
36 3 1 1.80889 -1.10874 -1.12496 0 1 0
37 3 1 2.44332 -1.67367 -1.49019 0 1 0
38 3 1 3.11878 1.83115 -1.65439 0 0 0
39 3 1 3.24034 2.06228 -0.764467 0 0 0
40 3 1 4.09476 -2.08957 -1.29833 0 1 0
41 3 2 3.917 -1.40223 -2.00072 0 1 0
42 3 2 3.62254 -1.61741 1.32828 0 1 -1
43 3 2 2.83859 -2.09812 1.53653 0 1 -1
44 3 2 3.29797 1.42155 1.188 0 0 -1
45 3 2 2.31066 1.372 1.00244 0 0 -1
46 3 2 1.77411 0.533713 1.11961 0 0 -1
47 3 2 2.65222 0.228453 1.05024 0 0 -1
48 3 2 2.97139 0.903589 0.439635 0 0 -1
49 4 1 -5.62089 -0.725732 0.590641 0 0 0
50 4 1 -4.68142 -0.95778 0.346186 0 0 0
51 4 1 -4.81936 -1.1554 -0.57859 0 0 0
52 4 1 -5.44176 -1.77929 -0.87404 0 0 0
53 4 1 -4.56819 2.07895 -0.680812 0 -1 0
54 4 1 -4.78478 1.19528 -1.11511 0 -1 0
55 4 1 -3.99233 0.888945 -0.752399 0 -1 0
56 4 1 -3.52037 1.71305 -0.903112 0 -1 0
57 4 2 -2.56609 1.72932 -0.833588 0 -1 0
58 4 2 -2.42026 -1.5679 -0.740452 0 0 0
59 4 2 -1.48378 -1.71717 -0.807162 0 0 0
60 4 2 -1.31378 1.55646 -0.688785 0 -1 0
61 4 2 -0.4042 1.42433 -0.332129 0 -1 0
62 4 2 -0.0156075 2.07279 0.308753 0 -1 0
63 4 2 0.225318 -1.71549 -0.559382 0 0 0
64 4 2 1.10958 -2.06033 -0.611235 0 0 0
65 5 1 0.610503 1.19095 -0.64812 0 0 0
66 5 1 0.97616 0.35114 -0.936642 0 0 0
67 5 1 1.71716 0.695421 -0.378238 0 0 0
68 5 1 2.15766 0.460645 -1.1996 0 0 0
69 5 1 2.82931 0.939221 -0.735665 0 0 0
70 5 1 3.45238 0.382943 -1.24858 0 0 0
71 5 1 3.28981 0.0215078 -0.353362 0 0 0
72 5 1 2.75991 -0.584539 -0.846998 0 0 0
73 5 2 2.82941 -1.04233 -0.0251565 0 0 0
74 5 2 3.70903 -0.763183 0.287255 0 0 0
75 5 2 4.18899 -1.48977 -0.205159 0 0 0
76 5 2 4.73241 -2.07704 0.307471 0 0 0
77 5 2 4.38045 1.22212 0.398234 0 -1 0
78 5 2 4.56378 1.31187 -0.556242 0 -1 0
79 5 2 5.14122 1.98372 -0.865638 0 -1 0
80 5 2 5.70577 1.24119 -1.03905 0 -1 0
81 6 1 -3.74349 -0.777826 -1.03816 0 1 1
82 6 1 -3.54871 -1.28851 -1.84022 0 1 1
83 6 1 -2.89872 -1.49452 1.72585 0 1 0
84 6 1 -2.40877 1.96008 1.7854 0 0 0
85 6 1 -1.44704 1.94695 1.78671 0 0 0
86 6 1 -1.09333 2.05828 -1.51993 0 0 1
87 6 1 -0.196342 1.82243 -1.32254 0 0 1
88 6 1 -0.0628618 1.00222 -1.81183 0 0 1
89 6 2 -0.75883 0.416746 -1.45565 0 0 1
90 6 2 -0.220973 -0.37195 -1.35038 0 0 1
91 6 2 0.679209 -0.198725 -1.71357 0 0 1
92 6 2 1.431 -0.042061 1.88416 0 0 0
93 6 2 0.766303 -0.0639751 1.17507 0 0 0
94 6 2 0.651356 0.850906 1.48451 0 0 0
95 6 2 0.170614 0.946556 0.681365 0 0 0
96 6 2 0.967944 1.52949 0.469326 0 0 0
97 7 1 -5.97885 1.48118 -1.75954 0 -1 1
98 7 1 5.96109 -1.83554 -1.88821 -1 0 1
99 7 1 5.37155 -1.28023 -1.33894 -1 0 1
100 7 1 5.31213 -0.757972 2.14879 -1 0 0
101 7 1 5.57385 -1.05882 1.23302 -1 0 0
102 7 1 -5.90259 -1.05646 1.4682 0 0 0
103 7 1 -5.34962 -1.4589 2.12843 0 0 0
104 7 1 -4.81596 -0.614522 -1.97991 0 0 1
105 7 2 -4.62663 -0.158504 -1.14465 0 0 1
106 7 2 -3.87329 0.015546 -1.69585 0 0 1
107 7 2 -4.47995 0.437564 1.95224 0 0 0
108 7 2 -4.29464 1.32603 -2.17985 0 0 1
109 7 2 -5.10458 1.76861 1.81449 0 0 0
110 7 2 -5.21554 0.986544 1.23341 0 0 0
111 7 2 -4.69349 1.12779 0.472413 0 0 0
112 7 2 -5.0735 2.04209 0.384713 0 0 0
113 8 1 4.46827 0.659573 -1.95459 0 -1 1
114 8 1 4.47346 1.60666 1.90112 0 -1 0
115 8 1 5.09111 1.0679 1.39384 0 -1 0
116 8 1 5.77401 0.524875 1.16444 0 -1 0
117 8 1 -5.84938 0.453817 0.544192 1 -1 0
118 8 1 -5.68463 1.2038 -0.0549181 1 -1 0
119 8 1 5.80438 1.56394 0.0590019 0 -1 0
120 8 1 5.75666 2.09066 0.836549 0 -1 0
121 8 2 5.79557 -1.41124 0.288907 0 0 0
122 8 2 5.77018 -0.65368 -0.342403 0 0 0
123 8 2 -5.81502 -0.157745 -0.590549 1 0 0
124 8 2 5.83153 -0.264293 -1.23274 0 0 0
125 8 2 5.2003 0.398171 -1.12921 0 0 0
126 8 2 4.6377 -0.384032 -0.977773 0 0 0
127 8 2 4.70027 -0.424061 -0.0236789 0 0 0
128 8 2 4.96696 0.381508 0.410591 0 0 0
ITEM: TIMESTEP
10000
ITEM: NUMBER OF ATOMS
128
ITEM: BOX BOUNDS pp pp pp
-6.2010977310080699e+00 6.2010977310080699e+00
-2.1200334123104558e+00 2.1200334123104558e+00
-2.1200334123104558e+00 2.1200334123104558e+00
ITEM: ATOMS id mol type x y z ix iy iz
1 1 1 -4.71592 -0.320726 0.922785 0 1 0
2 1 1 -3.80555 -0.274611 0.844814 0 1 0
3 1 1 -3.31804 -1.10629 0.842174 0 1 0
4 1 1 -4.1278 -1.68013 0.868122 0 1 0
5 1 1 -3.57045 -1.95069 0.0446289 0 1 0
6 1 1 -2.82368 1.9122 0.474316 0 0 0
7 1 1 -3.02473 1.5487 1.37194 0 0 0
8 1 1 -3.29863 0.765512 0.84302 0 0 0
9 1 2 -3.0048 0.504837 1.73388 0 0 0
10 1 2 -2.28571 0.719097 -2.00804 0 0 1
11 1 2 -2.05438 0.720289 1.28764 0 0 0
12 1 2 -1.29154 0.374386 1.72776 0 0 0
13 1 2 -1.18109 0.463476 0.775924 0 0 0
14 1 2 -0.913156 0.14962 -0.0439085 0 0 0
15 1 2 -0.670753 -0.736234 0.409145 0 0 0
16 1 2 -1.55773 -0.7073 -0.0119607 0 0 0
17 2 1 -1.55216 -0.584882 1.10714 0 0 -1
18 2 1 -2.47492 -0.534343 1.22708 0 0 -1
19 2 1 -2.7998 -0.618329 2.11749 0 0 -1
20 2 1 -2.76035 -0.199119 -1.25324 0 0 0
21 2 1 -1.81374 -0.278275 -1.15267 0 0 0
22 2 1 -1.58685 -0.714168 -2.02567 0 0 0
23 2 1 -0.567582 -0.670915 -2.09899 0 0 0
24 2 1 -0.0691936 -0.658467 1.34566 0 0 -1
25 2 2 -0.257557 -1.69061 1.18534 0 0 -1
26 2 2 0.354135 -1.62737 0.402722 0 0 -1
27 2 2 1.23741 -1.56537 0.915601 0 0 -1
28 2 2 2.13649 -1.04618 0.858541 0 0 -1
29 2 2 2.41672 -0.269682 1.29521 0 0 -1
30 2 2 2.2617 -0.182343 0.33846 0 0 -1
31 2 2 1.45835 -0.596883 -0.0237259 0 0 -1
32 2 2 1.02961 -0.974957 -0.761762 0 0 -1
33 3 1 1.27238 1.52525 -2.09162 0 0 0
34 3 1 0.75482 1.89451 1.3925 0 0 -1
35 3 1 0.812167 -1.76365 -2.06873 0 1 0
36 3 1 1.59752 -1.34478 -1.5791 0 1 0
37 3 1 2.49303 -1.72263 -1.62891 0 1 0
38 3 1 3.36398 1.9832 -1.51229 0 0 0
39 3 1 3.46737 1.96477 -0.588258 0 0 0
40 3 1 4.06378 -1.5087 -0.882499 0 1 0
41 3 2 3.89167 -1.14672 -1.77246 0 1 0
42 3 2 4.02721 -1.51891 1.59926 0 1 -1
43 3 2 3.05565 -1.71717 1.55799 0 1 -1
44 3 2 2.95366 1.57125 1.66563 0 0 -1
45 3 2 2.36265 1.77509 0.901729 0 0 -1
46 3 2 2.32034 0.805749 0.967002 0 0 -1
47 3 2 3.04555 0.816502 0.298936 0 0 -1
48 3 2 2.64322 1.55798 0.00373545 0 0 -1
49 4 1 -6.12894 -1.09212 0.433458 0 0 0
50 4 1 -5.25986 -1.45631 0.542041 0 0 0
51 4 1 -4.75456 -0.823395 0.0368728 0 0 0
52 4 1 -5.02424 -1.58425 -0.503208 0 0 0
53 4 1 -4.62819 1.84831 -0.808771 0 -1 0
54 4 1 -4.03023 1.05812 -0.938453 0 -1 0
55 4 1 -3.39165 1.22309 -1.58607 0 -1 0
56 4 1 -3.13963 1.8114 -0.926314 0 -1 0
57 4 2 -2.3452 1.30612 -1.14223 0 -1 0
58 4 2 -1.80686 -2.1253 -1.13829 0 0 0
59 4 2 -1.7415 2.08469 -0.103837 0 -1 0
60 4 2 -1.41163 1.24918 -0.479798 0 -1 0
61 4 2 -0.522991 1.08875 -0.700339 0 -1 0
62 4 2 -0.511817 1.86139 -0.177534 0 -1 0
63 4 2 0.0572658 -1.85972 -0.722093 0 0 0
64 4 2 0.867197 1.8707 -1.00435 0 -1 0
65 5 1 0.679031 0.545522 -0.859615 0 0 0
66 5 1 1.35547 0.530199 -1.49888 0 0 0
67 5 1 2.00397 0.387046 -0.777691 0 0 0
68 5 1 2.48604 1.15517 -1.04933 0 0 0
69 5 1 2.96523 0.592688 -1.63542 0 0 0
70 5 1 3.65094 0.0736837 -1.1975 0 0 0
71 5 1 3.43185 0.0699027 -0.204325 0 0 0
72 5 1 2.68488 -0.300707 -0.703364 0 0 0
73 5 2 3.25504 -1.03168 -0.384898 0 0 0
74 5 2 3.5991 -1.07636 0.479874 0 0 0
75 5 2 3.79327 -2.01588 0.679494 0 0 0
76 5 2 4.45802 1.50854 0.642507 0 -1 0
77 5 2 4.52194 2.07152 -0.167168 0 -1 0
78 5 2 4.71795 1.28873 -0.785465 0 -1 0
79 5 2 5.6095 1.5493 -0.557928 0 -1 0
80 5 2 -6.06711 0.903633 -0.555056 1 -1 0
81 6 1 -3.91226 -1.21388 -0.605271 0 1 1
82 6 1 -3.55787 -1.00094 -1.49778 0 1 1
83 6 1 -3.10866 -1.77078 -1.92801 0 1 1
84 6 1 -2.36985 1.82129 -2.02516 0 0 1
85 6 1 -1.47546 2.02894 2.04571 0 0 0
86 6 1 -0.845994 1.52494 1.42557 0 0 0
87 6 1 -0.121611 1.43432 2.02105 0 0 0
88 6 1 0.0165564 0.573337 -1.73714 0 0 1
89 6 2 -0.753591 0.0947508 -1.4645 0 0 1
90 6 2 -0.0747601 -0.420026 -1.02177 0 0 1
91 6 2 0.518206 -0.378403 -1.78141 0 0 1
92 6 2 1.33491 -0.331642 1.85623 0 0 0
93 6 2 1.45751 0.0664826 0.978951 0 0 0
94 6 2 0.898834 0.864798 0.983271 0 0 0
95 6 2 0.426708 1.3427 0.276595 0 0 0
96 6 2 1.363 1.41633 0.00592028 0 0 0
97 7 1 -6.06501 2.03347 -1.53449 0 -1 1
98 7 1 5.467 1.9617 -1.88942 -1 -1 1
99 7 1 5.77583 -1.39385 -1.51662 -1 0 1
100 7 1 5.1004 -0.804562 -1.82994 -1 0 1
101 7 1 5.24509 -0.917846 1.50693 -1 0 0
102 7 1 6.20311 -0.886723 1.6607 -1 0 0
103 7 1 -5.63158 -0.92715 -1.86859 0 0 1
104 7 1 -5.27306 -0.504378 -1.07787 0 0 1
105 7 2 -4.5165 0.00908447 -1.27233 0 0 1
106 7 2 -3.7207 0.0334749 -1.86655 0 0 1
107 7 2 -4.50511 0.518168 2.01742 0 0 0
108 7 2 -3.91624 1.2454 1.82159 0 0 0
109 7 2 -4.34245 2.02196 -1.9866 0 0 1
110 7 2 -5.15279 1.59941 1.87741 0 0 0
111 7 2 -5.06891 0.953077 1.21304 0 0 0
112 7 2 -4.45088 1.5949 0.831293 0 0 0
113 8 1 4.27962 0.554372 -2.13759 0 -1 1
114 8 1 4.63869 1.4117 1.96398 0 -1 0
115 8 1 5.39787 1.1108 1.44274 0 -1 0
116 8 1 -6.20098 1.58008 1.31743 1 -1 0
117 8 1 -6.0378 0.773289 0.753922 1 -1 0
118 8 1 -5.30542 1.11378 0.239311 1 -1 0
119 8 1 -5.93022 1.87109 0.287149 1 -1 0
120 8 1 5.85268 -1.89687 0.750633 0 0 0
121 8 2 5.32689 -1.39824 0.0431925 0 0 0
122 8 2 5.18584 -0.480037 0.259619 0 0 0
123 8 2 5.80809 -0.745194 -0.462512 0 0 0
124 8 2 5.93076 -0.0384485 -1.15022 0 0 0
125 8 2 4.98138 0.0304296 -1.07017 0 0 0
126 8 2 4.41506 -0.442882 -0.383424 0 0 0
127 8 2 4.45541 0.502728 -0.230277 0 0 0
128 8 2 5.39267 0.61144 0.00908849 0 0 0
