LAMMPS (4 Jul 2026)
  using 1 OpenMP thread(s) per MPI task
Loaded 0 plugins from 
# Molecular Studio - LAMMPS input / teaching model
# Bundle this file with the matching model.data.
# LJ reduced units. Not a validated PE/PP force field.
# Run in a NEW directory: lmp -in in.lammps

# 01 | Units, boundaries and structure
clear
  using 1 OpenMP thread(s) per MPI task
Loaded 0 plugins from 
units lj
dimension 3
atom_style molecular
boundary p p p
bond_style fene
read_data model.data
Reading data file ...
  orthogonal box = (-8.775 -3 -3) to (8.775 3 3)
  1 by 1 by 1 MPI processor grid
  reading atoms ...
  128 atoms
  scanning bonds ...
  1 = max bonds/atom
  orthogonal box = (-8.775 -3 -3) to (8.775 3 3)
  1 by 1 by 1 MPI processor grid
  reading bonds ...
  120 bonds
Finding 1-2 1-3 1-4 neighbors ...
  special bond factors lj:    0        0        0       
  special bond factors coul:  0        0        0       
     2 = max # of 1-2 neighbors
     2 = max # of 1-3 neighbors
     4 = max # of 1-4 neighbors
     6 = max # of special neighbors
  special bonds CPU = 0.000 seconds
  read_data CPU = 0.003 seconds

# 02 | Nonbonded and bonded interactions
# WCA: repulsive LJ, cutoff = 2^(1/6) * sigma
pair_style lj/cut 1.12246204831
pair_modify shift yes
pair_coeff 1 1 1 1 1.12246204831
pair_coeff 1 2 1 1 1.12246204831
pair_coeff 2 2 1 1 1.12246204831
bond_coeff 1 30 1.5 1 1
special_bonds fene
Finding 1-2 1-3 1-4 neighbors ...
  special bond factors lj:    0        1        1       
  special bond factors coul:  0        1        1       
     2 = max # of 1-2 neighbors
     6 = max # of special neighbors
  special bonds CPU = 0.000 seconds
neighbor 0.3 bin
neigh_modify every 1 delay 0 check yes
comm_modify cutoff 4.5

# 03 | Initial force and energy check
timestep 0.003
thermo 100
thermo_style custom step time temp press pe ke etotal density vol
thermo_modify norm no
run 0
WARNING: No fixes with time integration, atoms won't move
For more information see https://docs.lammps.org/err0028 (src/verlet.cpp:60)
Generated 0 of 1 mixed pair_coeff terms from geometric mixing rule
Neighbor list info ...
  update: every = 1 steps, delay = 0 steps, check = yes
  max neighbors/atom: 2000, page size: 100000
  master list distance cutoff = 1.422462
  ghost atom cutoff = 4.5
  binsize = 0.71123102, bins = 25 9 9
  1 neighbor lists, perpetual/occasional/extra = 1 0 0
  (1) pair lj/cut, perpetual
      attributes: half, newton on
      pair build: half/bin/newton
      stencil: half/bin/3d
      bin: standard
Per MPI rank memory allocation (min/avg/max) = 6.496 | 6.496 | 6.496 Mbytes
   Step          Time           Temp          Press          PotEng         KinEng         TotEng        Density         Volume    
         0   0              0             -0.51581723     2428.9908      0              2428.9908      0.20259576     631.8        
Loop time of 2e-06 on 1 procs for 0 steps with 128 atoms

0.0% CPU use with 1 MPI tasks x 1 OpenMP threads

MPI task timing breakdown:
Section |  min time  |  avg time  |  max time  |%varavg| %total
---------------------------------------------------------------
Pair    | 0          | 0          | 0          |   0.0 |  0.00
Bond    | 0          | 0          | 0          |   0.0 |  0.00
Neigh   | 0          | 0          | 0          |   0.0 |  0.00
Comm    | 0          | 0          | 0          |   0.0 |  0.00
Output  | 0          | 0          | 0          |   0.0 |  0.00
Modify  | 0          | 0          | 0          |   0.0 |  0.00
Other   |            | 2e-06      |            |       |100.00

Nlocal:            128 ave         128 max         128 min
Histogram: 1 0 0 0 0 0 0 0 0 0
Nghost:           1600 ave        1600 max        1600 min
Histogram: 1 0 0 0 0 0 0 0 0 0
Neighs:              0 ave           0 max           0 min
Histogram: 1 0 0 0 0 0 0 0 0 0

Total # of neighbors = 0
Ave neighs/atom = 0
Ave special neighs/atom = 1.875
Neighbor list builds = 0
Dangerous builds = 0

# 04 | Energy minimization (not thermal equilibration)
min_style cg
minimize 1.0e-6 1.0e-8 1000 10000
Generated 0 of 1 mixed pair_coeff terms from geometric mixing rule
Per MPI rank memory allocation (min/avg/max) = 7.621 | 7.621 | 7.621 Mbytes
   Step          Time           Temp          Press          PotEng         KinEng         TotEng        Density         Volume    
         0   0              0             -0.51581723     2428.9908      0              2428.9908      0.20259576     631.8        
        14   0.042          0             -0.029826994    2424.331       0              2424.331       0.20259576     631.8        
Loop time of 0.000387 on 1 procs for 14 steps with 128 atoms

0.0% CPU use with 1 MPI tasks x 1 OpenMP threads

Minimization stats:
  Stopping criterion = energy tolerance
  Energy initial, next-to-last, final = 
      2428.99080095364   2424.33172864004   2424.33098069991
  Force two-norm initial, final = 33.59725 3.5952042
  Force max component initial, final = 8.3993126 0.59381335
  Final line search alpha, max atom move = 0.14954798 0.088803586
  Iterations, force evaluations = 14 37

MPI task timing breakdown:
Section |  min time  |  avg time  |  max time  |%varavg| %total
---------------------------------------------------------------
Pair    | 9e-06      | 9e-06      | 9e-06      |   0.0 |  2.33
Bond    | 0.000162   | 0.000162   | 0.000162   |   0.0 | 41.86
Neigh   | 2.6e-05    | 2.6e-05    | 2.6e-05    |   0.0 |  6.72
Comm    | 0.000108   | 0.000108   | 0.000108   |   0.0 | 27.91
Output  | 0          | 0          | 0          |   0.0 |  0.00
Modify  | 0          | 0          | 0          |   0.0 |  0.00
Other   |            | 8.2e-05    |            |       | 21.19

Nlocal:            128 ave         128 max         128 min
Histogram: 1 0 0 0 0 0 0 0 0 0
Nghost:           1456 ave        1456 max        1456 min
Histogram: 1 0 0 0 0 0 0 0 0 0
Neighs:              0 ave           0 max           0 min
Histogram: 1 0 0 0 0 0 0 0 0 0

Total # of neighbors = 0
Ave neighs/atom = 0
Ave special neighs/atom = 1.875
Neighbor list builds = 1
Dangerous builds = 0

# 05 | Create velocities and equilibrate
reset_timestep 0
velocity all create 1 20260920 mom yes rot no dist gaussian
dump eqtraj all custom 200 equilibration.lammpstrj id mol type x y z ix iy iz
dump_modify eqtraj sort id
fix thermostat all nvt temp 1 1 0.3
run 2000
Generated 0 of 1 mixed pair_coeff terms from geometric mixing rule
Per MPI rank memory allocation (min/avg/max) = 6.496 | 6.496 | 6.496 Mbytes
   Step          Time           Temp          Press          PotEng         KinEng         TotEng        Density         Volume    
         0   0              1              0.17118598     2424.331       190.5          2614.831       0.20259576     631.8        
       100   0.3            0.86433708    -0.12456059     2475.7551      164.65621      2640.4113      0.20259576     631.8        
       200   0.6            1.0099167     -0.1210197      2476.0338      192.38912      2668.4229      0.20259576     631.8        
       300   0.9            1.0724168     -0.16916692     2485.5524      204.2954       2689.8478      0.20259576     631.8        
       400   1.2            1.0005154      0.1093118      2490.8622      190.59819      2681.4604      0.20259576     631.8        
       500   1.5            0.95511039    -0.070798086    2475.1214      181.94853      2657.0699      0.20259576     631.8        
       600   1.8            0.94521964     0.52244563     2476.1468      180.06434      2656.2112      0.20259576     631.8        
       700   2.1            1.1091198      0.22501093     2471.9089      211.28733      2683.1962      0.20259576     631.8        
       800   2.4            1.0540117      0.077679233    2490.0192      200.78924      2690.8084      0.20259576     631.8        
       900   2.7            0.94834682     0.14544898     2501.7984      180.66007      2682.4585      0.20259576     631.8        
      1000   3              0.99047351     0.54914458     2494.2819      188.6852       2682.9671      0.20259576     631.8        
      1100   3.3            0.92741398     0.37925383     2509.492       176.67236      2686.1644      0.20259576     631.8        
      1200   3.6            1.0123958      0.58671081     2502.1772      192.8614       2695.0386      0.20259576     631.8        
      1300   3.9            1.0589684      0.14182093     2506.1944      201.73349      2707.9279      0.20259576     631.8        
      1400   4.2            1.0410538      0.38283418     2505.8669      198.32076      2704.1877      0.20259576     631.8        
      1500   4.5            0.96815019     0.10323049     2486.8076      184.43261      2671.2402      0.20259576     631.8        
      1600   4.8            0.91807649     0.037991539    2492.4644      174.89357      2667.358       0.20259576     631.8        
      1700   5.1            1.022065       0.18063357     2491.7899      194.70338      2686.4933      0.20259576     631.8        
      1800   5.4            1.0624049      0.19433753     2502.9996      202.38812      2705.3878      0.20259576     631.8        
      1900   5.7            0.96651683     0.10433793     2497.2553      184.12146      2681.3768      0.20259576     631.8        
      2000   6              0.81078377     0.02304134     2500.391       154.45431      2654.8454      0.20259576     631.8        
Loop time of 0.018204 on 1 procs for 2000 steps with 128 atoms

Performance: 28477257.746 tau/day, 109865.964 timesteps/s, 14.063 Matom-step/s
171.7% CPU use with 1 MPI tasks x 1 OpenMP threads

MPI task timing breakdown:
Section |  min time  |  avg time  |  max time  |%varavg| %total
---------------------------------------------------------------
Pair    | 0.001343   | 0.001343   | 0.001343   |   0.0 |  7.38
Bond    | 0.001551   | 0.001551   | 0.001551   |   0.0 |  8.52
Neigh   | 0.004538   | 0.004538   | 0.004538   |   0.0 | 24.93
Comm    | 0.003647   | 0.003647   | 0.003647   |   0.0 | 20.03
Output  | 0.001564   | 0.001564   | 0.001564   |   0.0 |  8.59
Modify  | 0.003536   | 0.003536   | 0.003536   |   0.0 | 19.42
Other   |            | 0.002025   |            |       | 11.12

Nlocal:            128 ave         128 max         128 min
Histogram: 1 0 0 0 0 0 0 0 0 0
Nghost:            784 ave         784 max         784 min
Histogram: 1 0 0 0 0 0 0 0 0 0
Neighs:            125 ave         125 max         125 min
Histogram: 1 0 0 0 0 0 0 0 0 0

Total # of neighbors = 125
Ave neighs/atom = 0.9765625
Ave special neighs/atom = 1.875
Neighbor list builds = 133
Dangerous builds = 0
unfix thermostat

# NPT also integrates motion; do not add a second integrator.
fix barostat all npt temp 1 1 0.3 iso 1 1 3
run 4000
Generated 0 of 1 mixed pair_coeff terms from geometric mixing rule
Per MPI rank memory allocation (min/avg/max) = 7.765 | 7.765 | 7.765 Mbytes
   Step          Time           Temp          Press          PotEng         KinEng         TotEng        Density         Volume    
      2000   6              0.81078377     0.02304134     2500.391       154.45431      2654.8454      0.20259576     631.8        
      2100   6.3            0.98904804     0.090868638    2488.7757      188.41365      2677.1894      0.21580684     593.12301    
      2200   6.6            1.1918705      0.3770914      2482.6948      227.05133      2709.7462      0.24899203     514.07268    
      2300   6.9            1.1181646      0.32009276     2489.4514      213.01035      2702.4618      0.28009081     456.99464    
      2400   7.2            1.0226145     -0.09418086     2490.3095      194.80806      2685.1176      0.31283606     409.15999    
      2500   7.5            1.0367789      0.42253105     2483.0511      197.50638      2680.5574      0.347604       368.23512    
      2600   7.8            0.98439982     0.64918295     2490.6521      187.52817      2678.1803      0.37731646     339.23778    
      2700   8.1            0.95527411     0.23169283     2489.8338      181.97972      2671.8135      0.40267516     317.87409    
      2800   8.4            0.87959907     0.15280525     2482.5574      167.56362      2650.121       0.42747307     299.43406    
      2900   8.7            0.88217473     0.30655224     2479.8084      168.05429      2647.8627      0.45343996     282.28655    
      3000   9              1.1198248      0.26566479     2487.9857      213.32662      2701.3124      0.47937107     267.01653    
      3100   9.3            1.0386737      0.76111452     2508.4305      197.86734      2706.2979      0.50276892     254.59012    
      3200   9.6            0.96323753     0.6183167      2501.7148      183.49675      2685.2115      0.51974741     246.27347    
      3300   9.9            0.93527804    -0.22354034     2496.6653      178.17047      2674.8358      0.53281216     240.23476    
      3400   10.2           0.97404382     0.82238672     2495.5167      185.55535      2681.0721      0.54488593     234.91155    
      3500   10.5           1.0832325      1.4765562      2501.9033      206.35578      2708.2591      0.55589601     230.2589     
      3600   10.8           1.1966536      1.188398       2500.1448      227.9625       2728.1073      0.55974778     228.67442    
      3700   11.1           0.98980174     0.083737401    2495.5499      188.55723      2684.1072      0.55546044     230.43945    
      3800   11.4           0.97229928     0.63577339     2489.4388      185.22301      2674.6618      0.55257131     231.64431    
      3900   11.7           0.96123741     0.99569483     2501.3888      183.11573      2684.5045      0.55007942     232.69367    
      4000   12             1.1156485      0.3866873      2491.3665      212.53105      2703.8976      0.55111244     232.2575     
      4100   12.3           1.0060575      1.7980024      2501.7591      191.65396      2693.413       0.55908056     228.94733    
      4200   12.6           0.91362188     1.3752496      2493.0059      174.04497      2667.0509      0.56667239     225.88007    
      4300   12.9           0.97535511     1.1886541      2487.1721      185.80515      2672.9772      0.57196931     223.78823    
      4400   13.2           1.054335       1.1211845      2485.8236      200.85082      2686.6744      0.57675338     221.93195    
      4500   13.5           1.0735778      1.2612179      2490.0792      204.51657      2694.5958      0.57738636     221.68865    
      4600   13.8           0.95521673     1.6035941      2509.0058      181.96879      2690.9746      0.57265117     223.52176    
      4700   14.1           0.89758237     1.478558       2505.4303      170.98944      2676.4198      0.56730568     225.62792    
      4800   14.4           0.90050993     0.15316073     2491.5986      171.54714      2663.1457      0.56233079     227.62403    
      4900   14.7           0.91264804     0.77342935     2512.4024      173.85945      2686.2619      0.5613883      228.00618    
      5000   15             1.1296301      1.2958737      2491.0623      215.19454      2706.2568      0.55715533     229.73845    
      5100   15.3           0.97402044     0.63530237     2509.3735      185.55089      2694.9244      0.55173651     231.9948     
      5200   15.6           0.93597864     0.71626356     2498.2045      178.30393      2676.5085      0.54758993     233.75156    
      5300   15.9           0.86440944     1.4406864      2496.9038      164.67         2661.5738      0.54693051     234.03339    
      5400   16.2           0.90675883     1.1820901      2501.0822      172.73756      2673.8197      0.55170233     232.00917    
      5500   16.5           1.0674402      0.46688388     2503.2152      203.34735      2706.5626      0.55803603     229.37587    
      5600   16.8           1.0571004      2.0775499      2503.1146      201.37762      2704.4922      0.56671562     225.86284    
      5700   17.1           0.97731555     1.1492946      2493.9431      186.17861      2680.1217      0.56828133     225.24055    
      5800   17.4           0.92701631     0.61035153     2499.2597      176.59661      2675.8563      0.56978467     224.64627    
      5900   17.7           0.94752052     1.0467963      2511.7004      180.50266      2692.2031      0.5707567      224.26368    
      6000   18             1.0606063      0.59277077     2496.8879      202.0455       2698.9334      0.57407151     222.96874    
Loop time of 0.142851 on 1 procs for 4000 steps with 128 atoms

Performance: 7257912.090 tau/day, 28001.204 timesteps/s, 3.584 Matom-step/s
87.5% CPU use with 1 MPI tasks x 1 OpenMP threads

MPI task timing breakdown:
Section |  min time  |  avg time  |  max time  |%varavg| %total
---------------------------------------------------------------
Pair    | 0.01907    | 0.01907    | 0.01907    |   0.0 | 13.35
Bond    | 0.004654   | 0.004654   | 0.004654   |   0.0 |  3.26
Neigh   | 0.014457   | 0.014457   | 0.014457   |   0.0 | 10.12
Comm    | 0.017082   | 0.017082   | 0.017082   |   0.0 | 11.96
Output  | 0.00423    | 0.00423    | 0.00423    |   0.0 |  2.96
Modify  | 0.077451   | 0.077451   | 0.077451   |   0.0 | 54.22
Other   |            | 0.005907   |            |       |  4.14

Nlocal:            128 ave         128 max         128 min
Histogram: 1 0 0 0 0 0 0 0 0 0
Nghost:           1991 ave        1991 max        1991 min
Histogram: 1 0 0 0 0 0 0 0 0 0
Neighs:            274 ave         274 max         274 min
Histogram: 1 0 0 0 0 0 0 0 0 0

Total # of neighbors = 274
Ave neighs/atom = 2.140625
Ave special neighs/atom = 1.875
Neighbor list builds = 283
Dangerous builds = 0
unfix barostat
undump eqtraj
write_restart equilibrated.restart
System init for write_restart ...
Generated 0 of 1 mixed pair_coeff terms from geometric mixing rule
write_data equilibrated.data nocoeff
System init for write_data ...
Generated 0 of 1 mixed pair_coeff terms from geometric mixing rule

# 06 | NVE relaxation and gradient establishment
fix integrator all nve
run 1000
Generated 0 of 1 mixed pair_coeff terms from geometric mixing rule
Per MPI rank memory allocation (min/avg/max) = 6.515 | 6.515 | 6.515 Mbytes
   Step          Time           Temp          Press          PotEng         KinEng         TotEng        Density         Volume    
      6000   18             1.0606063      0.59277077     2496.8879      202.0455       2698.9334      0.57407151     222.96874    
      6100   18.3           1.0248358      1.2944908      2503.7223      195.23122      2698.9535      0.57407151     222.96874    
      6200   18.6           1.0761242     -0.027425896    2493.9579      205.00166      2698.9596      0.57407151     222.96874    
      6300   18.9           1.0315123      0.49488879     2502.474       196.50309      2698.9771      0.57407151     222.96874    
      6400   19.2           0.9740445      1.517051       2513.3811      185.55548      2698.9366      0.57407151     222.96874    
      6500   19.5           1.094075       2.2161297      2490.4996      208.42128      2698.9209      0.57407151     222.96874    
      6600   19.8           1.0478371      1.1470274      2499.3271      199.61297      2698.94        0.57407151     222.96874    
      6700   20.1           1.0377643      1.0361683      2501.2453      197.69409      2698.9394      0.57407151     222.96874    
      6800   20.4           0.98454446     1.0711686      2511.4248      187.55572      2698.9805      0.57407151     222.96874    
      6900   20.7           1.086925       1.7440213      2491.818       207.05922      2698.8773      0.57407151     222.96874    
      7000   21             1.0505055      0.35817261     2498.8237      200.1213       2698.945       0.57407151     222.96874    
Loop time of 0.012964 on 1 procs for 1000 steps with 128 atoms

Performance: 19993829.065 tau/day, 77136.686 timesteps/s, 9.873 Matom-step/s
120.5% CPU use with 1 MPI tasks x 1 OpenMP threads

MPI task timing breakdown:
Section |  min time  |  avg time  |  max time  |%varavg| %total
---------------------------------------------------------------
Pair    | 0.001194   | 0.001194   | 0.001194   |   0.0 |  9.21
Bond    | 0.000811   | 0.000811   | 0.000811   |   0.0 |  6.26
Neigh   | 0.00387    | 0.00387    | 0.00387    |   0.0 | 29.85
Comm    | 0.004886   | 0.004886   | 0.004886   |   0.0 | 37.69
Output  | 7.9e-05    | 7.9e-05    | 7.9e-05    |   0.0 |  0.61
Modify  | 0.000653   | 0.000653   | 0.000653   |   0.0 |  5.04
Other   |            | 0.001471   |            |       | 11.35

Nlocal:            128 ave         128 max         128 min
Histogram: 1 0 0 0 0 0 0 0 0 0
Nghost:           2021 ave        2021 max        2021 min
Histogram: 1 0 0 0 0 0 0 0 0 0
Neighs:            274 ave         274 max         274 min
Histogram: 1 0 0 0 0 0 0 0 0 0

Total # of neighbors = 274
Ave neighs/atom = 2.140625
Ave special neighs/atom = 1.875
Neighbor list builds = 65
Dangerous builds = 0
fix warm_exchange all thermal/conductivity 200 z 8 swap 1
run 4000
Generated 0 of 1 mixed pair_coeff terms from geometric mixing rule
Per MPI rank memory allocation (min/avg/max) = 6.516 | 6.516 | 6.516 Mbytes
   Step          Time           Temp          Press          PotEng         KinEng         TotEng        Density         Volume    
      7000   21             1.0505055      0.35817261     2498.8237      200.1213       2698.945       0.57407151     222.96874    
      7100   21.3           0.99825053     0.92943226     2508.8138      190.16673      2698.9805      0.57407151     222.96874    
      7200   21.6           1.0114844      0.56478627     2506.2967      192.68777      2698.9844      0.57407151     222.96874    
      7300   21.9           1.0789722     -0.38562679     2493.3969      205.5442       2698.9411      0.57407151     222.96874    
      7400   22.2           1.0259429      0.64448084     2503.5261      195.44213      2698.9682      0.57407151     222.96874    
      7500   22.5           1.0004294      1.0260117      2508.3877      190.5818       2698.9695      0.57407151     222.96874    
      7600   22.8           1.0196351      0.55778925     2504.7219      194.24049      2698.9623      0.57407151     222.96874    
      7700   23.1           1.0389481      1.5354358      2501.0439      197.91962      2698.9635      0.57407151     222.96874    
      7800   23.4           1.076281       1.1260839      2493.8731      205.03153      2698.9047      0.57407151     222.96874    
      7900   23.7           1.1043683      0.79360286     2488.5422      210.38217      2698.9244      0.57407151     222.96874    
      8000   24             1.0544008      0.98657646     2498.0225      200.86334      2698.8859      0.57407151     222.96874    
      8100   24.3           1.0459218      0.91922709     2499.7366      199.24811      2698.9847      0.57407151     222.96874    
      8200   24.6           1.0297758      1.0110535      2502.8044      196.17228      2698.9767      0.57407151     222.96874    
      8300   24.9           0.97512675     0.89578685     2513.2094      185.76165      2698.971       0.57407151     222.96874    
      8400   25.2           1.00006        0.20823767     2508.4385      190.51142      2698.9499      0.57407151     222.96874    
      8500   25.5           0.9834187      2.4276137      2511.675       187.34126      2699.0162      0.57407151     222.96874    
      8600   25.8           0.95627959     0.22899607     2516.8192      182.17126      2698.9905      0.57407151     222.96874    
      8700   26.1           1.0359212      0.89850644     2501.6052      197.34299      2698.9482      0.57407151     222.96874    
      8800   26.4           1.0255409      1.9935581      2503.6183      195.36554      2698.9838      0.57407151     222.96874    
      8900   26.7           1.0738948      0.65880011     2494.3938      204.57697      2698.9708      0.57407151     222.96874    
      9000   27             1.0245718      1.0697373      2503.7525      195.18093      2698.9334      0.57407151     222.96874    
      9100   27.3           1.0357444      2.0108907      2501.633       197.3093       2698.9423      0.57407151     222.96874    
      9200   27.6           1.0335539      1.1275711      2502.1196      196.89202      2699.0116      0.57407151     222.96874    
      9300   27.9           1.0107088      0.72588711     2506.4505      192.54003      2698.9905      0.57407151     222.96874    
      9400   28.2           0.93668258     0.77489391     2520.5999      178.43803      2699.0379      0.57407151     222.96874    
      9500   28.5           1.0392065      0.46660859     2501.0253      197.96885      2698.9941      0.57407151     222.96874    
      9600   28.8           1.0247292      0.21955281     2503.7883      195.21091      2698.9992      0.57407151     222.96874    
      9700   29.1           1.014926       1.5908555      2505.7181      193.34341      2699.0615      0.57407151     222.96874    
      9800   29.4           1.0578576      1.4429137      2497.4723      201.52187      2698.9942      0.57407151     222.96874    
      9900   29.7           0.99409369     1.5843706      2509.659       189.37485      2699.0338      0.57407151     222.96874    
     10000   30             1.0172867      0.95753008     2505.2125      193.79312      2699.0056      0.57407151     222.96874    
     10100   30.3           1.0887732      1.0930529      2491.5667      207.4113       2698.978       0.57407151     222.96874    
     10200   30.6           0.99189319     1.0784326      2510.0479      188.95565      2699.0036      0.57407151     222.96874    
     10300   30.9           1.0640998      1.8681734      2496.2613      202.71101      2698.9723      0.57407151     222.96874    
     10400   31.2           0.98225273     1.2398728      2511.857       187.11915      2698.9761      0.57407151     222.96874    
     10500   31.5           1.028824       1.9664375      2502.9614      195.99098      2698.9524      0.57407151     222.96874    
     10600   31.8           0.979317       0.49395526     2512.4588      186.55989      2699.0187      0.57407151     222.96874    
     10700   32.1           1.0094189      1.0796261      2506.6814      192.29429      2698.9757      0.57407151     222.96874    
     10800   32.4           0.9867387      1.2905344      2511.0213      187.97372      2698.995       0.57407151     222.96874    
     10900   32.7           1.022487       0.74643844     2504.1715      194.78377      2698.9553      0.57407151     222.96874    
     11000   33             1.036955       1.3814755      2501.467       197.53993      2699.0069      0.57407151     222.96874    
Loop time of 0.050777 on 1 procs for 4000 steps with 128 atoms

Performance: 20418693.503 tau/day, 78775.824 timesteps/s, 10.083 Matom-step/s
92.3% CPU use with 1 MPI tasks x 1 OpenMP threads

MPI task timing breakdown:
Section |  min time  |  avg time  |  max time  |%varavg| %total
---------------------------------------------------------------
Pair    | 0.004677   | 0.004677   | 0.004677   |   0.0 |  9.21
Bond    | 0.003162   | 0.003162   | 0.003162   |   0.0 |  6.23
Neigh   | 0.015717   | 0.015717   | 0.015717   |   0.0 | 30.95
Comm    | 0.018602   | 0.018602   | 0.018602   |   0.0 | 36.63
Output  | 0.000385   | 0.000385   | 0.000385   |   0.0 |  0.76
Modify  | 0.002699   | 0.002699   | 0.002699   |   0.0 |  5.32
Other   |            | 0.005535   |            |       | 10.90

Nlocal:            128 ave         128 max         128 min
Histogram: 1 0 0 0 0 0 0 0 0 0
Nghost:           1985 ave        1985 max        1985 min
Histogram: 1 0 0 0 0 0 0 0 0 0
Neighs:            263 ave         263 max         263 min
Histogram: 1 0 0 0 0 0 0 0 0 0

Total # of neighbors = 263
Ave neighs/atom = 2.0546875
Ave special neighs/atom = 1.875
Neighbor list builds = 270
Dangerous builds = 0
unfix warm_exchange
unfix integrator

# 07 | Production: new time origin and new cumulative exchange tally
reset_timestep 0
fix integrator all nve
compute kinetic all ke/atom
# Three unconstrained translational degrees of freedom; LJ kB = 1.
variable bead_temp atom c_kinetic/1.5
compute layers all chunk/atom bin/1d z lower 0.125 units reduced
fix profile all ave/chunk 10 20 200 layers v_bead_temp norm sample ave one file temperature.profile
fix exchange all thermal/conductivity 200 z 8 swap 1
variable elapsed equal step*dt
variable cross_area equal lx*ly
variable heat_length equal lz
# At production step 0, elapsed = 0 and cumulative exchange = 0.
fix energy_record all ave/time 200 1 200 v_elapsed f_exchange v_cross_area v_heat_length file heat_exchange.dat
# Exchange tally is recorded separately at exchange-compatible timesteps.
dump prodtraj all custom 200 production.lammpstrj id mol type x y z ix iy iz
dump_modify prodtraj sort id
run 10000
Generated 0 of 1 mixed pair_coeff terms from geometric mixing rule
Per MPI rank memory allocation (min/avg/max) = 6.641 | 6.641 | 6.641 Mbytes
   Step          Time           Temp          Press          PotEng         KinEng         TotEng        Density         Volume    
         0   0              1.036955       1.3814755      2501.467       197.53993      2699.0069      0.57407151     222.96874    
       100   0.3            1.0125121      1.1574526      2506.1445      192.88355      2699.0281      0.57407151     222.96874    
       200   0.6            0.995113       0.98400453     2509.4647      189.56903      2699.0338      0.57407151     222.96874    
       300   0.9            1.0107522      1.4589446      2506.476       192.54829      2699.0243      0.57407151     222.96874    
       400   1.2            1.0482014      1.821323       2499.2289      199.68238      2698.9113      0.57407151     222.96874    
       500   1.5            0.9847917      0.59118096     2511.3999      187.60282      2699.0027      0.57407151     222.96874    
       600   1.8            1.0104733      1.1103874      2506.5204      192.49517      2699.0156      0.57407151     222.96874    
       700   2.1            1.0591238      0.94253329     2497.2066      201.76308      2698.9696      0.57407151     222.96874    
       800   2.4            0.98864647     1.5953395      2510.6579      188.33715      2698.9951      0.57407151     222.96874    
       900   2.7            0.96700624     2.5425376      2514.8052      184.21469      2699.0198      0.57407151     222.96874    
      1000   3              0.97894801     1.3912009      2512.5295      186.4896       2699.0191      0.57407151     222.96874    
      1100   3.3            1.0146508      1.7569337      2505.7344      193.29097      2699.0254      0.57407151     222.96874    
      1200   3.6            0.99994852     1.1803246      2508.5199      190.49019      2699.0101      0.57407151     222.96874    
      1300   3.9            1.0348601      0.5839997      2501.8026      197.14085      2698.9434      0.57407151     222.96874    
      1400   4.2            1.0185436      0.55385162     2504.9171      194.03256      2698.9496      0.57407151     222.96874    
      1500   4.5            1.011011       0.52302081     2506.3522      192.59759      2698.9497      0.57407151     222.96874    
      1600   4.8            1.0025596      1.9711345      2507.9788      190.9876       2698.9664      0.57407151     222.96874    
      1700   5.1            0.92298986     0.11010586     2523.1889      175.82957      2699.0184      0.57407151     222.96874    
      1800   5.4            1.0187512      0.6190516      2504.9059      194.07211      2698.978       0.57407151     222.96874    
      1900   5.7            1.0658232      0.43592189     2495.8809      203.03931      2698.9202      0.57407151     222.96874    
      2000   6              0.92353923     1.0593263      2523.1258      175.93422      2699.06        0.57407151     222.96874    
      2100   6.3            0.97880677     1.1525708      2512.4665      186.46269      2698.9292      0.57407151     222.96874    
      2200   6.6            0.99084288     2.02419        2510.1914      188.75557      2698.947       0.57407151     222.96874    
      2300   6.9            0.9423548      0.8439169      2519.5063      179.51859      2699.0249      0.57407151     222.96874    
      2400   7.2            0.96714041     1.1109763      2514.7656      184.24025      2699.0059      0.57407151     222.96874    
      2500   7.5            1.0414465      1.8736785      2500.5066      198.39555      2698.9021      0.57407151     222.96874    
      2600   7.8            0.96140772     1.7804224      2515.8226      183.14817      2698.9708      0.57407151     222.96874    
      2700   8.1            0.98704268     0.82420676     2510.9612      188.03163      2698.9929      0.57407151     222.96874    
      2800   8.4            0.94637478     0.75897611     2518.7471      180.2844       2699.0315      0.57407151     222.96874    
      2900   8.7            0.99730509     0.52839013     2508.9687      189.98662      2698.9553      0.57407151     222.96874    
      3000   9              0.96147471     1.4623316      2515.8588      183.16093      2699.0198      0.57407151     222.96874    
      3100   9.3            1.0264025      1.9713354      2503.4064      195.52967      2698.9361      0.57407151     222.96874    
      3200   9.6            0.97950419     1.1757351      2512.4006      186.59555      2698.9962      0.57407151     222.96874    
      3300   9.9            0.98232217     0.71655111     2511.9131      187.13237      2699.0455      0.57407151     222.96874    
      3400   10.2           1.0391107      1.1716418      2501.063       197.95058      2699.0136      0.57407151     222.96874    
      3500   10.5           0.96765645     1.8274692      2514.6735      184.33855      2699.0121      0.57407151     222.96874    
      3600   10.8           1.0394564      0.74016725     2500.975       198.01645      2698.9915      0.57407151     222.96874    
      3700   11.1           0.95149528     0.83932449     2517.7396      181.25985      2698.9995      0.57407151     222.96874    
      3800   11.4           0.94590814     1.8505945      2518.8855      180.1955       2699.081       0.57407151     222.96874    
      3900   11.7           0.99793657     1.1257777      2508.8847      190.10692      2698.9916      0.57407151     222.96874    
      4000   12             0.94628347     0.8649607      2518.7204      180.267        2698.9874      0.57407151     222.96874    
      4100   12.3           0.97826514     0.40693792     2512.6637      186.35951      2699.0232      0.57407151     222.96874    
      4200   12.6           1.0142511      0.61277758     2505.8005      193.21484      2699.0153      0.57407151     222.96874    
      4300   12.9           0.98561485     0.67277044     2511.2567      187.75963      2699.0163      0.57407151     222.96874    
      4400   13.2           1.0178336      1.5213253      2505.1134      193.89729      2699.0107      0.57407151     222.96874    
      4500   13.5           1.0490146      1.3631715      2499.148       199.83728      2698.9853      0.57407151     222.96874    
      4600   13.8           1.0032887      0.80561122     2507.9215      191.12649      2699.048       0.57407151     222.96874    
      4700   14.1           0.98091244     0.68285877     2512.1808      186.86382      2699.0447      0.57407151     222.96874    
      4800   14.4           1.0948608      1.1912317      2490.3957      208.57097      2698.9667      0.57407151     222.96874    
      4900   14.7           1.0024587      1.299014       2508.0568      190.96839      2699.0251      0.57407151     222.96874    
      5000   15             1.0443443      0.38131245     2500.0676      198.94758      2699.0151      0.57407151     222.96874    
      5100   15.3           1.0296702      0.81441857     2502.856       196.15217      2699.0082      0.57407151     222.96874    
      5200   15.6           1.0587187      1.0641219      2497.3271      201.68591      2699.013       0.57407151     222.96874    
      5300   15.9           1.0474515      1.6007314      2499.4406      199.53951      2698.9802      0.57407151     222.96874    
      5400   16.2           1.0248104      0.64689181     2503.7965      195.22638      2699.0229      0.57407151     222.96874    
      5500   16.5           0.9832547     -0.47715862     2511.7436      187.31002      2699.0536      0.57407151     222.96874    
      5600   16.8           1.0491062      1.2385237      2499.148       199.85473      2699.0028      0.57407151     222.96874    
      5700   17.1           1.0209636      1.3071081      2504.5287      194.49356      2699.0223      0.57407151     222.96874    
      5800   17.4           1.0249412      1.1184375      2503.7722      195.25129      2699.0235      0.57407151     222.96874    
      5900   17.7           1.0390331      0.56631865     2501.0494      197.9358       2698.9852      0.57407151     222.96874    
      6000   18             1.0091         0.56211065     2506.792       192.23356      2699.0256      0.57407151     222.96874    
      6100   18.3           0.96016626     0.47781991     2516.1327      182.91167      2699.0444      0.57407151     222.96874    
      6200   18.6           1.0380546      2.1881787      2501.2247      197.7494       2698.9741      0.57407151     222.96874    
      6300   18.9           1.0375637      1.3899249      2501.3198      197.65588      2698.9757      0.57407151     222.96874    
      6400   19.2           1.0187526      0.083148006    2504.8772      194.07237      2698.9496      0.57407151     222.96874    
      6500   19.5           0.99385505     1.3585008      2509.6749      189.32939      2699.0043      0.57407151     222.96874    
      6600   19.8           0.93908255     0.59162131     2520.1552      178.89523      2699.0504      0.57407151     222.96874    
      6700   20.1           1.0739655      0.6072284      2494.3884      204.59043      2698.9788      0.57407151     222.96874    
      6800   20.4           0.97122763     0.37385907     2513.9939      185.01886      2699.0128      0.57407151     222.96874    
      6900   20.7           0.97851108     2.5259335      2512.6086      186.40636      2699.0149      0.57407151     222.96874    
      7000   21             1.0879123      2.299139       2491.7154      207.24729      2698.9627      0.57407151     222.96874    
      7100   21.3           0.977803       0.58423976     2512.7393      186.27147      2699.0107      0.57407151     222.96874    
      7200   21.6           0.95800667     0.8664563      2516.5313      182.50027      2699.0316      0.57407151     222.96874    
      7300   21.9           0.98102981     0.15786892     2512.1143      186.88618      2699.0004      0.57407151     222.96874    
      7400   22.2           1.0148971      1.4031058      2505.6377      193.3379       2698.9756      0.57407151     222.96874    
      7500   22.5           1.0358539      1.8358221      2501.6667      197.33018      2698.9968      0.57407151     222.96874    
      7600   22.8           1.0730565      0.99612898     2494.5344      204.41727      2698.9516      0.57407151     222.96874    
      7700   23.1           1.0825057      0.9750944      2492.7344      206.21733      2698.9517      0.57407151     222.96874    
      7800   23.4           0.98954391     0.54413359     2510.5009      188.50812      2699.0091      0.57407151     222.96874    
      7900   23.7           1.0730677      1.2012645      2494.5385      204.4194       2698.9579      0.57407151     222.96874    
      8000   24             1.0427722      1.0933036      2500.3212      198.6481       2698.9693      0.57407151     222.96874    
      8100   24.3           1.0589163      1.5204928      2497.2256      201.72356      2698.9491      0.57407151     222.96874    
      8200   24.6           1.0399519      1.2623341      2500.8259      198.11083      2698.9368      0.57407151     222.96874    
      8300   24.9           1.0597988      1.472649       2497.0318      201.89168      2698.9235      0.57407151     222.96874    
      8400   25.2           1.0093219      1.4761776      2506.7133      192.27583      2698.9892      0.57407151     222.96874    
      8500   25.5           0.9610959      0.82351432     2515.9205      183.08877      2699.0093      0.57407151     222.96874    
      8600   25.8           1.0166502      1.5940434      2505.2982      193.67187      2698.9701      0.57407151     222.96874    
      8700   26.1           1.0386181      0.10623527     2501.11        197.85675      2698.9668      0.57407151     222.96874    
      8800   26.4           1.0403325      0.86926391     2500.8328      198.18334      2699.0161      0.57407151     222.96874    
      8900   26.7           1.0018129      0.67012484     2508.1402      190.84536      2698.9856      0.57407151     222.96874    
      9000   27             1.0578663      1.6232273      2497.4109      201.52353      2698.9344      0.57407151     222.96874    
      9100   27.3           0.95232065     1.1387798      2517.618       181.41708      2699.035       0.57407151     222.96874    
      9200   27.6           0.98346745     0.85815765     2511.655       187.35055      2699.0056      0.57407151     222.96874    
      9300   27.9           0.99259298     0.50990449     2509.8806      189.08896      2698.9696      0.57407151     222.96874    
      9400   28.2           1.0320806      1.3507891      2502.4004      196.61135      2699.0118      0.57407151     222.96874    
      9500   28.5           1.0204214      0.5488719      2504.6155      194.39029      2699.0058      0.57407151     222.96874    
      9600   28.8           1.0254031      0.95900171     2503.6442      195.33929      2698.9835      0.57407151     222.96874    
      9700   29.1           1.0645918      0.93981574     2496.1595      202.80475      2698.9642      0.57407151     222.96874    
      9800   29.4           1.0087827      1.4100423      2506.8201      192.1731       2698.9932      0.57407151     222.96874    
      9900   29.7           0.98488707     1.3021106      2511.3621      187.62099      2698.9831      0.57407151     222.96874    
     10000   30             1.0037779      0.92959788     2507.7777      191.21968      2698.9974      0.57407151     222.96874    
Loop time of 0.156236 on 1 procs for 10000 steps with 128 atoms

Performance: 16590286.490 tau/day, 64005.735 timesteps/s, 8.193 Matom-step/s
90.0% CPU use with 1 MPI tasks x 1 OpenMP threads

MPI task timing breakdown:
Section |  min time  |  avg time  |  max time  |%varavg| %total
---------------------------------------------------------------
Pair    | 0.017428   | 0.017428   | 0.017428   |   0.0 | 11.15
Bond    | 0.012158   | 0.012158   | 0.012158   |   0.0 |  7.78
Neigh   | 0.037222   | 0.037222   | 0.037222   |   0.0 | 23.82
Comm    | 0.045875   | 0.045875   | 0.045875   |   0.0 | 29.36
Output  | 0.007885   | 0.007885   | 0.007885   |   0.0 |  5.05
Modify  | 0.021793   | 0.021793   | 0.021793   |   0.0 | 13.95
Other   |            | 0.01387    |            |       |  8.88

Nlocal:            128 ave         128 max         128 min
Histogram: 1 0 0 0 0 0 0 0 0 0
Nghost:           2019 ave        2019 max        2019 min
Histogram: 1 0 0 0 0 0 0 0 0 0
Neighs:            292 ave         292 max         292 min
Histogram: 1 0 0 0 0 0 0 0 0 0

Total # of neighbors = 292
Ave neighs/atom = 2.28125
Ave special neighs/atom = 1.875
Neighbor list builds = 659
Dangerous builds = 0
unfix energy_record
unfix profile
unfix exchange
unfix integrator
undump prodtraj
write_restart final.restart
System init for write_restart ...
Generated 0 of 1 mixed pair_coeff terms from geometric mixing rule
write_data final.data nocoeff
System init for write_data ...
Generated 0 of 1 mixed pair_coeff terms from geometric mixing rule

# Completed the requested script; physical convergence must be assessed separately.
Total wall time: 0:00:00
